##TITLE=2-Pentanone  $$Beginning of link block
##JCAMP-DX= 4.24
##DATA TYPE=LINK
##ORIGIN= DePauw University
##OWNER=Jeff Hansen
##BLOCKS=3
##TITLE=2-Pentanone $$Beginning of structure block
##JCAMP-CS=3.7 $$ChemDoodle Version 8.0.1
##DATA TYPE=STRUCTURE
##ORIGIN=DePauw University
##OWNER=Jeff Hansen
##BLOCK ID=1
##CROSS REFERENCE=IR PEAK ASSIGNMENTS: BLOCK ID=2
##MOLFORM=C2 H6 O
##ATOMLIST=
1 H 0
2 C 3
3 C 0
4 H 0
5 H 0
6 O 0
7 C 2
8 H 0
9 H 0
10 C 2
11 H 0
12 H 0
13 C 3
14 H 0
15 H 0
16 H 0
##BONDLIST=
1 2 S
2 3 S
2 4 S
2 5 S
3 6 D
3 7 S
7 8 S
7 9 S
7 10 S
10 11 S
10 12 S
10 13 S
13 14 S
13 15 S
13 16 S
##DATE=16/05/16
##TIME=18:03:06
##MAX_RASTER=792
##XY_RASTER_FACTOR=10000
##XY_RASTER=
1 1600000 2646000 0 
2 1800000 2646000 0 
3 1999999 2646000 0 
4 1800000 2446000 0 
5 1800000 2845999 0 
6 1999999 2446000 0 
7 2199999 2646000 0 
8 2199999 2446000 0 
9 2199999 2845999 0 
10 2399999 2646000 0 
11 2399999 2845999 0 
12 2399999 2446000 0 
13 2599999 2646000 0 
14 2599999 2446000 0 
15 2599999 2845999 0 
16 2799999 2646000 0 
##END= $$ End of structure block
##TITLE=2-Pentanone $$Beginning of assignment block
##JCAMP-DX=4.24
##DATA TYPE=IR PEAK ASSIGNMENTS
##ORIGIN= DePauw University
##OWNER= Jeff Hansen
##BLOCK ID=2
##CROSS REFERENCE=STRUCTURE: BLOCK ID=1
##PEAK ASSIGNMENTS=(XYA)
(2963,0.69,<1>)
(2963,0.69,<2>)
(2963,0.69,<4>)
(2963,0.69,<5>)
(2963,0.69,<7>)
(2963,0.69,<8>)
(2963,0.69,<9>)
(2963,0.69,<10>)
(2963,0.69,<11>)
(2963,0.69,<12>)
(2963,0.69,<13>)
(2963,0.69,<14>)
(2963,0.69,<15>)
(2963,0.69,<16>)
(1713,0.33,<3>)
(1713,0.33,<6>)
$$PEAK WIDTH=1/CM
##END= $$End of assignment block
##TITLE=2-Pentanone $$Beginning of data block
##JCAMP-DX=4.24
##DATA TYPE=IR SPECTRUM
##ORIGIN=Lab
##OWNER=Nicolet
##LONGDATE=2015/11/02
##TIME=09:59:56
##DATA PROCESSING=
Ratio against background
Truncated
ElementMultiply or ElementDivide
##XUNITS=1/CM
##YUNITS=TRANSMITTANCE
##FIRSTX=399.212341
##LASTX=3999.837646
##FIRSTY=0.915231
##MAXX=3999.837646
##MINX=399.212341
##MAXY=1.148235
##MINY=0.372702
##XFACTOR=1.000000
##YFACTOR=1.000000E-008
##NPOINTS=1868
##DELTAX=1.928562
##XYDATA=(X++(Y..Y))
399.212 91523048 90851840 90751520 91350112 92036784 91601216 91713432 
412.712 92011016 92265616 92316584 91884624 91082032 91372056 91740632 
426.212 91593296 91465952 91956304 92680200 93237152 93636856 94271000 
439.712 95318264 95998864 95734192 95417280 95995640 96564112 96029808 
453.212 94879792 94716432 95773440 95761080 94007984 93260592 92877232 
466.712 90700952 87787504 86655072 88764016 92400456 94806592 96070696 
480.212 96500320 96120416 95702472 95169288 94476544 93942464 93952000 
493.712 94054904 93663832 93439608 93702792 93897912 93936800 93657760 
507.212 93350696 93241024 93095608 92482824 91285312 90488520 90900960 
520.712 91437920 91387648 90814128 90263984 90292640 90920688 91784672 
534.212 92628664 93415272 94004456 94570448 94848320 95021096 95343912 
547.712 95483520 95545672 95709368 95763840 95556632 95520848 95775504 
561.212 95939144 95809208 95630608 95687784 95692936 95604120 95220528 
574.712 94751880 94408920 93822056 92786152 91426792 89501464 86780080 
588.212 83375872 80576600 80578792 83649672 87641296 90858064 93102064 
601.712 94599736 95562880 96226072 96713544 97018064 97187624 97173248 
615.213 97263240 97431352 97120544 96548808 96004712 95629616 95684784 
628.713 96202032 96867872 97335008 97769528 98108896 98242784 98469448 
642.213 98700264 98760896 98806176 98925400 98822248 98596280 98419880 
655.713 98094152 97593296 97077336 96675664 96179880 95958656 97328624 
669.213 98299336 96510152 95930056 95984592 96222592 96361248 96490360 
682.713 96676464 96872032 96941640 97032640 97177032 97335312 97381744 
696.213 97370488 97489200 97552584 97511432 97524328 97518664 97485400 
709.713 97342056 97077800 96690056 96204456 95583152 94841120 93362344 
723.214 91510064 90209112 90016472 90935184 92413816 93932392 95169184 
736.714 96026048 96567384 96976952 97227112 97415600 97652616 97899288 
750.214 98070216 98251552 98397456 98507664 98568616 98609472 98667336 
763.714 98718528 98783840 98840424 98814536 98747344 98769040 98781512 
777.214 98741456 98675552 98689400 98711384 98648192 98527920 98393576 
790.714 98294328 98246712 98175032 98114272 98081512 98012880 97948824 
804.214 97951512 97966856 97946168 97908552 97863648 97805784 97829456 
817.714 97871344 97826448 97778336 97743176 97669240 97589856 97566776 
831.214 97585176 97558216 97517376 97520864 97616784 97697032 97768144 
844.715 97836128 97897184 97932656 97979064 98033280 98089048 98124464 
858.215 98114256 98103048 98122176 98134752 98135416 98105968 98056768 
871.715 98072464 98051968 97930704 97791528 97596944 97381856 97076800 
885.215 96604816 95980808 95379664 95057840 95066672 95117032 94894136 
898.715 94320800 93692936 93535408 94225296 95390392 96420392 97135360 
912.215 97611952 97910760 98109144 98186584 98204640 98206456 98240072 
925.715 98258936 98233576 98173136 98081112 97969392 97874128 97724600 
939.215 97530400 97309872 97091032 96820920 96449568 95975200 95333720 
952.716 94507344 93599736 92733936 92037896 91586320 91399864 91514848 
966.216 91873640 92330936 92798568 93272760 93784008 94386592 95048776 
979.716 95621208 96061248 96431760 96723920 96947872 97161648 97372992 
993.216 97538304 97668064 97782152 97884192 97999368 98086968 98156976 
1006.716 98215496 98245536 98238600 98288456 98326208 98343144 98350888 
1020.216 98370400 98361520 98363648 98363640 98307688 98272552 98230992 
1033.716 98166952 98073320 97941240 97809048 97722920 97727040 97748224 
1047.216 97745456 97755312 97809848 97869216 97931416 98003944 98111536 
1060.717 98192688 98210544 98183912 98175936 98179224 98178208 98094832 
1074.217 97966808 97843048 97678856 97443144 97148768 96799952 96427856 
1087.717 95976816 95534088 95276408 95250744 95282472 95316944 95354000 
1101.217 95400496 95527776 95642672 95615072 95456072 95305096 95222448 
1114.717 95286616 95423960 95588808 95792096 96046848 96256656 96419176 
1128.217 96538512 96578144 96522688 96394600 96227488 96047152 95754736 
1141.717 95317288 94767992 94061744 93123728 91970240 90568120 88817336 
1155.217 86582984 83811184 80536256 76897320 73093456 69485056 66483316 
1168.718 64902916 65527216 68545496 72913112 77294024 80888104 83605360 
1182.218 85551704 86995752 88107696 88931536 89497104 89924744 90364056 
1195.718 90803464 91204904 91588824 91969392 92443760 93032376 93652088 
1209.218 94261528 94783728 95145216 95388648 95545248 95585792 95514608 
1222.718 95345416 95053840 94595400 94007792 93305656 92598816 92140080 
1236.218 92074888 92263800 92495632 92733128 92967984 93237288 93545408 
1249.718 93803896 94017008 94196632 94414936 94592896 94661072 94609272 
1263.218 94390512 94007736 93527968 92987056 92559960 92463264 92679808 
1276.719 93065032 93479952 93820544 94052736 94134816 94011224 93717760 
1290.219 93347592 92972840 92702088 92675848 92909632 93324480 93823040 
1303.719 94302576 94689048 95001056 95255336 95426136 95505368 95515352 
1317.219 95447232 95305272 95079664 94821312 94599824 94399736 94161440 
1330.719 93833592 93364544 92715232 91823064 90649888 89109536 87279432 
1344.219 84941904 81935248 78304408 74588904 71477504 69477688 68377328 
1357.719 67860392 67438824 67092172 66906768 67359056 68580040 70783080 
1371.219 73367016 76040080 78465304 80378248 82200760 84098568 85706736 
1384.719 86992568 88095600 89108360 89854440 90292696 90471480 90470432 
1398.220 90137984 89452960 88507256 87129488 85421016 83979952 83157272 
1411.720 83211728 83801208 84328632 84574688 84623064 84651416 84728120 
1425.220 85014416 85459192 86044344 86700112 87212304 87530256 87800640 
1438.720 88080096 88237256 88451088 88670408 88774416 88745568 88615832 
1452.220 88230440 87537632 86628848 86078160 86263368 86697872 86975968 
1465.720 87384176 88271032 89709288 91361792 93149368 94255744 95060360 
1479.220 95582736 95949440 96237880 96455512 96575896 96700640 96908640 
1492.720 97169040 97238832 97238488 97333912 97495576 97570936 97530600 
1506.221 97374160 97525464 97682288 97756504 97810520 97786792 97746832 
1519.721 97752008 97760936 97849960 97933992 98031848 98060496 97993216 
1533.221 97877136 97962728 97922536 97747112 97854880 98081472 98156720 
1546.721 98221248 98155936 98092016 98093624 98045440 97989216 97758352 
1560.221 98012256 98348840 98371840 98317608 98323600 98254456 98301112 
1573.721 98352736 98331352 98476504 98586840 98559864 98584440 98606272 
1587.221 98588072 98567920 98582336 98567376 98552872 98601992 98640184 
1600.721 98597904 98598072 98588672 98506784 98465192 98493592 98449392 
1614.222 98383048 98303784 98329992 98344792 98241136 98122480 98113720 
1627.722 98008336 97950088 97918824 97795224 97617168 97715920 97755232 
1641.222 97729880 97627352 97509248 97424832 97503888 97390896 97132312 
1654.722 97249040 97320952 97099016 96814848 96526544 96257600 95823216 
1668.222 95334656 94748688 94319952 93759552 93326752 93080384 92812216 
1681.722 92283840 91548248 90600768 89799648 88417360 86639312 84450568 
1695.222 81105576 76614048 72501136 64754708 59179508 53222380 47230400 
1708.722 42466076 39338892 37270212 37784800 40247624 46411704 53193640 
1722.223 60885132 69229600 76417528 81588624 85505432 88065752 90333912 
1735.723 92235856 93229136 94045216 94748080 95291392 95717032 95974048 
1749.223 96288456 96617216 96898576 97093584 97249856 97325688 97394224 
1762.723 97542496 97663120 97711328 97725128 97723344 97800864 98015664 
1776.223 98117248 98188760 98177072 98243760 98359600 98480096 98559696 
1789.723 98591800 98591112 98691296 98771280 98844208 98864048 98888216 
1803.223 98916720 99035488 99113640 99126088 99167184 99254608 99216688 
1816.723 99215848 99265080 99301240 99310160 99269912 99233024 99279840 
1830.224 99358600 99390304 99410480 99465192 99452608 99546488 99518896 
1843.724 99463024 99535112 99587136 99557984 99541968 99514360 99595584 
1857.224 99609552 99638216 99611128 99562088 99551984 99560560 99450832 
1870.724 99559528 99681008 99627704 99624888 99706360 99649728 99589608 
1884.224 99617136 99771344 99833960 99621224 99454440 99450752 99521336 
1897.724 99677688 99600968 99562240 99542504 99576800 99522672 99465192 
1911.224 99338592 99278656 99247920 99262440 99371064 99429584 99310128 
1924.724 99373856 99460480 99385984 99225496 99369840 99629688 99709496 
1938.224 99499520 99392176 99474904 99483696 99467552 99529144 99505544 
1951.725 99425016 99417232 99486776 99202992 99428944 99689880 100189440 
1965.225 100484920 100648096 100586960 100303280 99765304 99358432 99495624 
1978.725 100010288 100012088 99450008 98924208 99315664 99695760 99541856 
1992.225 99382464 99212872 99145440 99304408 99477424 99407688 98882832 
2005.725 99029728 99267440 99590024 99446912 99086536 98685992 98665792 
2019.225 98434904 98598216 99096472 99102944 98803528 98774296 98696072 
2032.725 98612232 98866752 99206624 99489856 99364432 99126832 99505192 
2046.225 99159200 99031552 98863200 98594760 99211536 99650792 99273504 
2059.725 99018632 99068400 99266592 99253360 99070184 99044512 98991656 
2073.224 98891472 99100680 99192816 99179224 99251728 99444560 99608552 
2086.723 99786464 99494056 99280104 99402152 99370264 99214136 99184328 
2100.223 99346848 99556112 99383840 99390344 99314200 99124656 99157720 
2113.722 99361992 99353248 99288352 99262936 99146928 99074976 99272712 
2127.221 99423224 99291728 99003552 98838840 98932448 99397376 99356304 
2140.720 99302304 99491056 99536744 99579304 99565696 99570400 99238608 
2154.220 98606200 98509712 98529936 98752664 98533824 97644408 98337896 
2167.719 99579520 99684952 99452960 98846040 99073912 98614264 98697072 
2181.218 99243256 99069728 98890392 98888048 98316832 98143288 98685616 
2194.718 98903888 98876744 98984632 98628600 98621248 98774384 98865544 
2208.217 98828976 98300880 98220456 98718656 98958112 99171272 99303408 
2221.716 99158984 99066192 99173752 98925848 98655384 98851272 99232784 
2235.215 99144680 98947584 98941088 99092960 99252928 99230616 99073584 
2248.715 99193496 99276856 99142800 99169328 99326784 99347472 99415400 
2262.214 99607224 99626312 99354592 99500384 99686312 99588352 99672448 
2275.713 99814280 99803768 99892296 99799528 99751784 99829648 100093160 
2289.212 100380216 100562752 100650952 100875024 101090512 101231944 
2300.783 101434352 101649736 101957856 102436920 103047968 103554792 
2312.354 103839944 104152408 104731288 105554248 106278336 107047376 
2323.925 107829792 108417168 109110072 109522424 109570288 109693024 
2335.496 110099056 110623232 110771024 111040840 110764248 109484840 
2347.066 107289032 106585656 107962976 110180904 112177072 113828432 
2358.637 114653552 114823496 114447768 113402728 111937920 110365232 
2370.208 108766464 107151280 105521920 104238872 103132752 102161752 
2381.779 101285976 100482304 99970760 99701072 99558288 99536672 99479360 
2395.278 99504376 99588176 99562608 99518816 99528768 99498128 99529800 
2408.777 99492016 99510088 99564768 99486952 99401432 99443744 99469448 
2422.277 99514112 99524128 99501024 99522872 99525464 99504496 99440576 
2435.776 99467016 99504296 99477688 99596008 99643408 99620312 99632304 
2449.275 99619384 99526024 99551072 99630264 99617152 99537872 99475328 
2462.774 99466064 99516648 99591240 99588352 99530968 99479976 99502432 
2476.274 99542440 99547264 99574240 99630696 99633152 99503848 99395048 
2489.773 99486760 99434568 99381576 99422952 99438736 99437752 99466896 
2503.272 99399744 99363536 99485624 99541856 99466704 99350344 99363816 
2516.771 99408224 99408032 99440136 99474232 99447528 99448208 99427248 
2530.271 99408584 99406040 99402480 99442992 99459128 99447592 99487856 
2543.770 99539856 99532416 99461352 99440096 99469112 99510136 99525144 
2557.269 99574448 99573248 99569304 99499280 99460272 99426616 99454808 
2570.769 99440240 99463040 99459856 99389176 99429920 99513016 99596656 
2584.268 99595568 99558112 99515376 99477968 99502680 99539944 99570080 
2597.767 99496352 99437320 99366640 99337040 99360480 99418088 99430696 
2611.266 99485904 99480664 99361472 99344248 99402536 99407112 99391016 
2624.766 99393896 99398512 99400736 99401944 99426544 99437952 99421944 
2638.265 99421400 99436248 99384376 99396520 99385624 99396632 99465752 
2651.764 99465280 99408240 99412864 99434864 99420240 99357152 99344448 
2665.263 99389256 99407280 99395824 99410920 99389720 99370680 99394768 
2678.763 99387544 99389104 99417288 99412152 99399320 99433440 99451272 
2692.262 99489704 99516968 99516384 99522328 99569064 99579168 99569344 
2705.761 99545896 99512936 99511480 99516272 99477784 99457888 99493672 
2719.260 99481064 99476368 99448000 99384640 99367960 99395984 99395184 
2732.760 99328160 99282648 99265000 99264112 99274184 99279024 99301288 
2746.259 99333272 99363632 99352264 99374488 99354224 99328112 99352872 
2759.758 99312624 99271872 99273312 99274776 99256648 99204248 99176784 
2773.258 99143696 99126744 99118872 99099736 99088376 99046584 99001640 
2786.757 99007920 98952272 98886408 98881504 98894272 98874024 98791552 
2800.256 98713504 98714672 98696720 98676488 98623776 98611104 98653640 
2813.755 98676176 98608920 98530056 98521840 98482120 98398728 98351560 
2827.255 98287944 98155552 98007656 97897992 97876192 97875096 97812224 
2840.754 97741336 97663592 97514984 97398288 97277312 97097504 96881312 
2854.253 96641440 96339112 95923096 95418224 94874352 94296192 93634864 
2867.752 92791984 91731784 90464296 89108808 88068472 87780192 88265520 
2881.252 89166472 90048824 90679032 91107168 91441784 91685584 91847944 
2894.751 91978144 92040584 92088920 92114360 92085952 92069592 92078760 
2908.250 92033296 91894584 91752952 91596616 91371080 91101104 90781008 
2921.750 90433888 90028616 89500080 88831176 88021000 87166960 86389136 
2935.249 85816888 85678464 85998032 86459728 86904576 87146776 87169328 
2948.748 86976608 86421800 85515064 84218760 82610368 80894648 79483976 
2962.247 78730376 78790960 79655528 81120088 82850056 84669520 86478120 
2975.747 88139408 89644744 91024576 92231000 93228712 93990032 94582912 
2989.246 95036912 95383416 95606000 95713776 95785176 95841952 95959248 
3002.745 96119480 96276792 96469480 96759112 97052976 97274416 97433216 
3016.244 97607056 97771824 97908824 98043144 98144768 98255632 98356912 
3029.744 98363888 98347144 98448728 98563200 98600512 98633696 98656696 
3043.243 98726832 98795120 98761456 98681384 98680376 98797176 98817272 
3056.742 98800392 98843064 98866912 98911584 98909008 98921464 98947944 
3070.241 98950504 98965440 99014904 99010264 99010072 99064304 99059992 
3083.741 99027592 99083176 99118648 99170040 99146520 99094192 99141512 
3097.240 99190544 99215056 99244760 99264576 99284160 99282280 99233776 
3110.739 99226736 99242648 99243256 99223072 99244152 99350288 99379808 
3124.239 99291592 99270632 99322688 99329448 99357720 99379024 99342888 
3137.738 99305144 99285720 99318024 99356744 99358504 99360344 99295496 
3151.237 99274056 99328096 99341400 99298184 99290480 99305768 99358768 
3164.736 99384392 99368608 99330312 99309224 99377288 99457128 99419336 
3178.236 99379016 99333176 99323936 99364616 99401928 99475480 99469416 
3191.735 99450856 99409648 99402000 99420664 99429648 99384400 99356472 
3205.234 99389280 99393584 99390376 99363808 99402728 99441568 99462200 
3218.733 99460096 99445072 99460000 99434008 99441488 99472072 99503232 
3232.233 99492040 99535712 99522040 99404512 99394728 99444592 99503392 
3245.732 99553800 99611024 99582288 99566632 99515728 99438512 99462992 
3259.231 99506128 99557536 99536008 99500504 99476328 99478896 99467128 
3272.730 99501368 99537456 99509280 99529280 99577560 99561840 99476832 
3286.230 99482000 99519280 99513344 99515424 99470840 99449104 99473840 
3299.729 99539416 99583512 99565536 99578280 99537152 99554520 99634184 
3313.228 99603096 99504008 99497152 99526672 99541712 99533720 99537952 
3326.728 99580424 99552848 99499816 99466392 99523712 99534456 99540520 
3340.227 99552544 99528712 99511976 99505928 99464968 99453944 99449848 
3353.726 99473240 99518464 99446888 99463752 99530352 99535840 99483528 
3367.225 99494728 99539168 99531296 99494904 99442696 99419712 99431960 
3380.725 99441456 99409512 99357616 99357288 99334600 99256584 99223168 
3394.224 99206640 99186928 99192768 99150488 99114432 99207688 99142824 
3407.723 98997408 98975272 98947080 98978480 99041928 98973832 98959592 
3421.222 98964000 98981808 99054000 99199536 99253032 99287704 99326920 
3434.722 99312328 99320072 99385568 99458408 99392304 99356784 99364776 
3448.221 99463800 99559904 99525640 99495520 99490232 99427032 99451744 
3461.720 99482192 99450504 99492088 99459736 99447208 99425656 99373504 
3475.219 99404440 99414272 99351440 99343024 99458904 99481456 99379736 
3488.719 99336856 99344200 99350536 99370232 99369448 99366600 99384712 
3502.218 99381392 99391400 99366776 99327920 99380512 99411288 99369352 
3515.717 99297680 99272648 99256784 99238160 99172088 99159768 99169576 
3529.217 99199552 99268376 99355928 99347688 99328920 99340888 99333696 
3542.716 99294528 99176368 99198288 99262888 99194744 99213040 99339672 
3556.215 99370832 99264520 99203472 99190568 99281704 99265304 99294592 
3569.714 99433672 99561672 99572504 99475736 99434664 99423544 99438104 
3583.214 99513128 99434208 99373800 99509408 99630680 99743160 99856880 
3596.713 99814432 99731136 99727936 99634864 99563296 99457088 99311304 
3610.212 99311768 99314152 99394376 99458288 99356368 99444416 99649120 
3623.711 99639928 99592208 99607128 99661712 99786840 99767552 99646008 
3637.211 99511184 99363440 99264520 99294872 99130504 98950416 99135248 
3650.710 99223224 99243336 99285680 99474840 99542568 99399616 99346936 
3664.209 99356808 99226200 99108816 99159640 99352992 99382656 99360752 
3677.708 99423472 99484960 99600768 99664544 99611920 99258720 99287464 
3691.208 99775008 100012624 100068112 100110720 100039000 99826904 99867928 
3704.707 99984104 100089032 100037176 99817696 99683056 99674560 99789568 
3718.206 100017056 100203216 100254336 100337624 100349408 100267120 
3729.777 100178088 100155848 99993096 99819744 99930400 99793712 99569312 
3743.276 99395776 99381216 99382328 99178608 99382128 99648120 99518496 
3756.776 99416992 99452360 99484896 99491120 99387976 99410728 99502184 
3770.275 99469448 99534536 99621544 99579328 99480808 99509744 99594568 
3783.774 99520224 99465880 99601680 99609824 99490784 99457864 99349552 
3797.273 99267616 99294872 99351328 99458232 99433720 99480488 99653096 
3810.773 99527536 99351656 99313808 99338000 99331336 99358968 99509272 
3824.272 99609288 99512816 99461600 99458544 99367376 99315784 99388240 
3837.771 99399944 99473896 99613368 99567184 99595624 99621176 99468056 
3851.271 99150344 99039528 99421168 99618536 99608008 99614072 99571736 
3864.770 99380344 99388440 99329880 99319128 99513760 99622296 99615000 
3878.269 99514520 99393712 99420392 99462440 99531816 99675304 99547096 
3891.768 99349928 99431392 99517648 99409616 99364144 99339016 99360016 
3905.268 99449432 99502736 99517896 99527680 99512304 99368304 99310072 
3918.767 99434256 99556616 99594136 99577032 99534280 99485968 99565488 
3932.266 99582200 99633392 99630424 99545056 99580720 99467376 99373984 
3945.765 99393232 99427544 99429040 99502608 99628504 99618760 99605152 
3959.265 99618352 99605072 99555656 99510952 99502184 99521320 99507816 
3972.764 99556256 99574680 99542576 99522896 99445080 99430176 99423256 
3986.263 99421128 99426008 99493944 99553336 99520440 99531584 99543584 
3999.762 99460736 

##END= $$End of data block


##END= $$ End of link block