##TITLE=3-Pentanone  $$Beginning of link block
##JCAMP-DX= 4.24
##DATA TYPE=LINK
##ORIGIN= DePauw University
##OWNER=Jeff Hansen
##BLOCKS=3
##TITLE=3-Pentanone $$Beginning of structure block
##JCAMP-CS=3.7 $$ChemDoodle Version 8.0.1
##DATA TYPE=STRUCTURE
##ORIGIN=DePauw University
##OWNER=Jeff Hansen
##BLOCK ID=1
##CROSS REFERENCE=IR PEAK ASSIGNMENTS: BLOCK ID=2
##MOLFORM=C5 H10 O
##ATOMLIST=
1 H 0
2 C 3
3 H 0
4 H 0
5 C 2
6 C 0
7 O 0
8 C 2
9 H 0
10 H 0
11 C 3
12 H 0
13 H 0
14 H 0
15 H 0
16 H 0
##BONDLIST=
1 2 S
2 3 S
2 4 S
2 5 S
5 6 S
6 7 D
6 8 S
8 9 S
8 10 S
8 11 S
11 12 S
11 13 S
11 14 S
5 15 S
5 16 S
##DATE=16/05/07
##TIME=12:17:05
##MAX_RASTER=792
##XY_RASTER_FACTOR=10000
##XY_RASTER=
1 1220000 2420000 0 
2 1420000 2420000 0 
3 1420000 2220000 0 
4 1420000 2620000 0 
5 1620000 2420000 0 
6 1820000 2420000 0 
7 1820000 2220000 0 
8 2020000 2420000 0 
9 2020000 2220000 0 
10 2020000 2620000 0 
11 2220000 2420000 0 
12 2220000 2220000 0 
13 2420000 2420000 0 
14 2220000 2620000 0 
15 1620000 2220000 0 
16 1620000 2620000 0 

##END= $$ End of structure block
##TITLE=3-Pentanone $$Beginning of assignment block
##JCAMP-DX=4.24
##DATA TYPE=IR PEAK ASSIGNMENTS
##ORIGIN= DePauw University
##OWNER= Jeff Hansen
##BLOCK ID=2
##CROSS REFERENCE=STRUCTURE: BLOCK ID=1
##PEAK ASSIGNMENTS=(XYA)
(2977,0.78,<1>)
(2977,0.78,<2>)
(2977,0.78,<3>)
(2977,0.78,<4>)
(2977,0.78,<5>)
(2977,0.78,<8>)
(2977,0.78,<9>)
(2977,0.78,<10>)
(2977,0.78,<11>)
(2977,0.78,<12>)
(2977,0.78,<13>)
(2977,0.78,<14>)
(2977,0.78,<15>)
(2977,0.78,<16>)
(1712,0.39,<6>)
(1712,0.39,<7>)
##END= $$End of assignment block
##TITLE=3-Pentanone $$Beginning of data block
##JCAMP-DX=4.24
##DATA TYPE=IR SPECTRUM
##ORIGIN= DePauw University
OWNER= Jeff Hansen
##BLOCK ID=3
##XUNITS=1/CM
##YUNITS=TRANSMITTANCE
##FIRSTX=399.212341
##LASTX=3999.837646
##FIRSTY=0.922712
##MAXX=3999.837646
##MINX=399.212341
##MAXY=1.014034
##MINY=0.377880
##XFACTOR=1.000000
##YFACTOR=1.000000E-008
##NPOINTS=1868
##DELTAX=1.928562
##XYDATA=(X++(Y..Y))
399.212 92271176 90819080 90902856 91100216 91112120 91391112 91243800 
412.712 91977520 93279040 94223824 94178904 94129120 94618744 95235456 
426.212 95492608 95492784 95412728 95164664 95508480 96339784 96391936 
439.712 96415424 97072992 97420984 97376976 97138576 96424784 96044088 
453.212 96029632 96097744 96245544 96144392 95608296 94273608 92504768 
466.712 90629520 88626768 87710416 89124312 92324048 95487088 97415896 
480.212 97731592 97080352 96255896 95626128 95156904 94696448 94430792 
493.712 94484592 94613176 94608128 94565528 94370456 94426448 94575240 
507.212 94611288 94713120 94893360 95258552 95502328 95646488 95760496 
520.712 95699296 95530344 95263896 95013696 95036736 95155424 95082872 
534.212 95233848 95456896 95505984 95571488 95750432 95981464 96117032 
547.712 96212264 96222464 96297568 96424816 96635632 96758392 96810704 
561.212 96817512 96842456 96994296 97138864 97178360 97113296 97111296 
574.712 97159120 97188608 97188088 97039064 96956432 96965416 97018224 
588.212 96958656 96848496 96838416 96859224 96712112 96525872 96434440 
601.712 96274472 96311600 96414472 96297808 95972920 95559632 95086816 
615.213 94454088 93697288 93031864 92572336 92503328 92781800 93482152 
628.713 94429552 95330952 96114024 96642704 97056704 97343840 97440632 
642.213 97493432 97490120 97471960 97406872 97120328 96826096 96545560 
655.713 96216232 95889208 95534448 95211904 94982112 94641624 93947552 
669.213 93838456 94180720 94282208 94364376 94382328 94575704 94838024 
682.713 95102376 95392896 95656712 95920512 96199232 96508344 96774104 
696.213 96993344 97215952 97494960 97729496 97948992 98157200 98308976 
709.713 98376176 98405112 98464480 98604176 98686616 98733288 98772904 
723.214 98807592 98857376 98823912 98835848 98868392 98830720 98802048 
736.714 98784936 98771752 98767048 98712952 98621824 98577976 98555016 
750.214 98548960 98565664 98552832 98533400 98513480 98480952 98388744 
763.714 98299672 98247960 98128504 97939360 97836160 97717120 97508904 
777.214 97269256 96998936 96773584 96608248 96444688 96238552 96030096 
790.714 95832416 95604480 95210784 94674912 94094760 93315408 92157000 
804.214 90666584 88812664 86648384 84675664 83771352 84435064 86342912 
817.714 88679200 90762504 92475496 93804576 94782000 95513136 96125480 
831.214 96616672 97004320 97340904 97645968 97891072 98038784 98175800 
844.715 98310432 98431848 98508976 98571096 98655472 98678768 98717816 
858.215 98793328 98863576 98861080 98839408 98868944 98865576 98799696 
871.715 98845632 98893720 98896848 98953928 98931112 98867672 98901056 
885.215 98936336 98913232 98863536 98796256 98765240 98704976 98659184 
898.715 98669344 98641568 98533536 98448864 98381360 98285248 98169408 
912.215 97990000 97772088 97573592 97348784 97011688 96595920 96041632 
925.715 95320376 94395080 93089560 91435632 89453256 87195264 85100112 
939.215 83718712 83387112 83891816 84645624 84899616 84388176 83001584 
952.716 80870648 78834304 78834792 81889920 86523128 90512008 93059936 
966.216 94587120 95542080 96188904 96660824 96954984 97152360 97330568 
979.716 97437168 97449808 97425240 97341800 97221512 97123272 96969632 
993.216 96712896 96394128 96036520 95609296 95074384 94405752 93531208 
1006.716 92480672 91309888 90377112 90140032 90503968 91219824 92173488 
1020.216 93139328 93953112 94703168 95320168 95849552 96303736 96656072 
1033.716 96902752 97087080 97286808 97481592 97587680 97697728 97803016 
1047.216 97836720 97868624 97885376 97895664 97935176 97920776 97883144 
1060.717 97831720 97775840 97693664 97587296 97438848 97222896 97036952 
1074.217 96844448 96581504 96247576 95758672 95095032 94185600 92884064 
1087.717 91141648 89000440 86837640 85465008 85751608 87283736 88799192 
1101.217 89636128 89842488 89520328 88716336 87292984 85107248 81916728 
1114.717 77574368 72324688 67417736 64894324 66283364 70895752 76593576 
1128.217 81526344 85235304 87841712 89665176 90922232 91824744 92466656 
1141.717 92946344 93318376 93529696 93591440 93542784 93406664 93221664 
1155.217 92937448 92583648 92130208 91515384 90792048 89971872 89106112 
1168.718 88409048 88102000 88342592 89140328 90316680 91567728 92737120 
1182.218 93696480 94442704 95010144 95428808 95785656 96090496 96342256 
1195.718 96552888 96753960 96928024 97102112 97234296 97317872 97387776 
1209.218 97456776 97524112 97557560 97594112 97633184 97663080 97689256 
1222.718 97699128 97728720 97742648 97729152 97694744 97691192 97638528 
1236.218 97570576 97504360 97408360 97324712 97253264 97196704 97167576 
1249.718 97165360 97180768 97241384 97272720 97287912 97336016 97401752 
1263.218 97463592 97514392 97526928 97558248 97622592 97692968 97748360 
1276.719 97789072 97820816 97821880 97829736 97833384 97827536 97807624 
1290.219 97786240 97743528 97677832 97604928 97506576 97370792 97197568 
1303.719 96993208 96787720 96549208 96322656 96102080 95828472 95548992 
1317.219 95170472 94711280 94223064 93679200 93100128 92608528 92289488 
1330.719 92164848 92158872 92080968 91789904 91233240 90459520 89526648 
1344.219 88193632 86501272 84515736 82331176 80185360 78375256 77112680 
1357.719 76841992 77554744 79176944 81354904 83345296 84571800 84920800 
1371.219 84021432 81610152 78462376 77527752 79780672 83540600 86700592 
1384.719 88745408 89940224 90810360 91290056 91383696 91252880 91033864 
1398.220 90564624 89836672 88962448 87728840 86228672 84616496 82978536 
1411.720 81711592 81071832 81081528 81552064 82750224 84217936 85389560 
1425.220 86615464 87690640 88552128 89297984 89816408 90071520 90247384 
1438.720 90344688 90238968 89808912 88976520 87668568 85903776 84228520 
1452.220 82734496 81650992 80258104 78196112 77193520 78289440 81353232 
1465.720 85689736 88748560 90743344 92043288 93469280 94478768 95193920 
1479.220 95757440 96249144 96617856 96872960 96916072 96997136 97295296 
1492.720 97630608 97648736 97647952 97799080 98026864 98116528 97961152 
1506.221 97577352 97830456 98151976 98333784 98398232 98253464 98333096 
1519.721 98319992 98156864 98453432 98475544 98536976 98663968 98612176 
1533.221 98578264 98750200 98673888 98368160 98225272 98580912 98812360 
1546.721 98891704 98911360 98957264 98927896 98855504 98629176 98013968 
1560.221 98467400 99020568 99016456 98988656 98919920 98868656 99034024 
1573.721 98942840 98779064 98908408 98989384 99017160 99012528 99064520 
1587.221 99126568 99033464 99045392 99088128 99040720 98983968 98910440 
1600.721 98920672 98965000 98919864 98884960 98850072 98819088 98741256 
1614.222 98600928 98374864 98391352 98409792 98261968 98194440 98230296 
1627.722 98117792 98096936 98168768 97997512 97528904 97733536 98019624 
1641.222 97994744 97842688 97646424 97504608 97671192 97436432 96987904 
1654.722 97428824 97573840 97421488 97224152 96956960 96804096 96303544 
1668.222 95759088 95403096 95043360 94468888 93944256 93674944 93447288 
1681.722 92842304 91922536 91454864 90962128 89800144 88487792 86762288 
1695.222 83723832 79997584 76367536 69155824 63449852 56292504 48708624 
1708.722 42756852 39345904 37787948 39224836 42623256 49765384 56927384 
1722.223 64410600 71831472 77877224 82105840 85267192 87406400 89310776 
1735.723 90738560 91481528 92090120 92747144 93308568 93845320 94248616 
1749.223 94719032 95283552 95681152 95943904 96314584 96610920 96907352 
1762.723 97285704 97596912 97742232 97802288 97876208 97973288 98203392 
1776.223 98350824 98535168 98607608 98684248 98776480 98855960 98946888 
1789.723 98879800 98676696 98861984 99061928 99064384 99019648 99096600 
1803.223 99306624 99423000 99375024 99375016 99358704 99417536 99488168 
1816.723 99515328 99529096 99547232 99564592 99537856 99489912 99423600 
1830.224 99387864 99550648 99656800 99689064 99680912 99691320 99668048 
1843.724 99560856 99655240 99721992 99740288 99851768 99758592 99736232 
1857.224 99764032 99764936 99713736 99652552 99604504 99616600 99522232 
1870.724 99606472 99624920 99691040 99767024 99699584 99692280 99710176 
1884.224 99649136 99678608 99647224 99684728 99756360 99673592 99651080 
1897.724 99740608 99769096 99836256 99698184 99629704 99587800 99452440 
1911.224 99514160 99606728 99562336 99619416 99617928 99607640 99508288 
1924.724 99519296 99548736 99659736 99693920 99693408 99712992 99646904 
1938.224 99599800 99795112 99674712 99544232 99453528 99640824 99507960 
1951.725 99607160 99512680 99355784 99390648 99639552 99922384 99787712 
1965.225 99537624 99356488 98664208 98113264 98721912 99294400 99371384 
1978.725 99954032 99971016 99745288 99579064 99680904 99608080 99797944 
1992.225 99945904 99897592 99663424 99331120 99502272 100185456 100788776 
2005.725 101403384 100921440 100263232 99680936 99238808 99073448 99323528 
2019.225 99985592 100464120 100331752 100037264 99761072 99319768 98784760 
2032.725 98676712 98530808 98216832 97866096 98265832 98895632 99054632 
2046.225 99304432 99956632 99913296 99455904 99259392 99664408 99364912 
2059.725 99210392 99443960 99378448 99294920 99305320 99093312 99126480 
2073.224 99475128 99924128 99726144 99548408 99698032 99592576 99416040 
2086.723 99537752 99706352 99792792 99606504 99409664 99524168 99477480 
2100.223 99299080 99270032 99421272 99548664 99452288 99446856 99372792 
2113.722 99344552 99345440 99543744 99616216 99651680 99592840 99579880 
2127.221 99736544 99906848 99856096 99756240 99581512 99942432 99918112 
2140.720 99650368 99513760 99776208 100009976 99951032 99705272 99871408 
2154.220 99627776 99469232 99977512 99689584 99182536 99456512 99147248 
2167.719 98896832 98669992 98766592 99064704 99289808 99356560 99700672 
2181.218 100147176 100196664 100002672 100183568 100269512 99987424 99991624 
2194.718 100025600 99900720 99669944 99410288 99251216 99391312 99585456 
2208.217 99501440 99507808 99497944 99513256 99311600 99439312 99791032 
2221.716 99841136 99947584 100089632 100045432 99992632 100017488 100298312 
2235.215 100281928 100063824 100069856 100348704 100272840 100293096 
2246.786 100462296 100246624 100002864 99978176 100076904 100150952 
2258.357 100153984 100069704 99988128 100012568 99980256 99767048 99743960 
2271.856 99915392 99816008 99806992 99868448 99832256 99789360 99865704 
2285.355 99878704 99807056 99772368 99803872 99772488 99623280 99702768 
2298.855 99837208 99806008 99669120 99560896 99561992 99499880 99368000 
2312.354 99294112 99236448 99159872 99070392 98943240 98764712 98753464 
2325.853 98728904 98674984 98625040 98569408 98563408 98585168 98602064 
2339.353 98538192 98552504 98638104 98790936 99040064 99171648 98978304 
2352.852 98721496 98491952 98317352 98289472 98352904 98283952 98301472 
2366.351 98384112 98583944 98726112 98783808 99001544 99242560 99369040 
2379.850 99501880 99608680 99687360 99751752 99830920 99907232 99894512 
2393.350 99865040 99924208 99947016 99927672 99935776 99883552 99810064 
2406.849 99793256 99825496 99915464 99930632 99885312 99852288 99884512 
2420.348 99924072 99885192 99882168 99814760 99729000 99828968 99810136 
2433.847 99708672 99695272 99756464 99695176 99670632 99675376 99702384 
2447.347 99815096 99907992 99893792 99798024 99812160 99812080 99819840 
2460.846 99806976 99754240 99781848 99867728 99865872 99737072 99746496 
2474.345 99869312 99917944 99906584 99843480 99754184 99752768 99792024 
2487.844 99905824 99986656 99924584 99864352 99880808 99834648 99815184 
2501.344 99838392 99868632 99890808 99922688 99905176 99895056 99931240 
2514.843 99965824 99918352 99936384 99896680 99847992 99852504 99865528 
2528.342 99861776 99815176 99763192 99831208 99922360 100012624 99938752 
2541.842 99954616 99975208 99968168 99898464 99906216 99909904 99839136 
2555.341 99799984 99905328 99957848 99936904 99912168 99962688 100044400 
2568.840 100040904 99970136 99955592 99878464 99795240 99840904 99949896 
2582.339 99931376 99946160 99913784 99798672 99898552 100046632 99971488 
2595.839 99918328 99931592 99909152 99855288 99904240 99926960 99934536 
2609.338 99925312 99891056 99867840 99866088 99864792 99881240 99869128 
2622.837 99845552 99830616 99845016 99809944 99844368 99856304 99851928 
2636.336 99863152 99830568 99832672 99857312 99822248 99820744 99805608 
2649.836 99843112 99863064 99829632 99826992 99826088 99814208 99820808 
2663.335 99836976 99857272 99847016 99800280 99805280 99829464 99832936 
2676.834 99868384 99858976 99833872 99837912 99823072 99778904 99771792 
2690.333 99812976 99854320 99825424 99806632 99791080 99789840 99792928 
2703.833 99810208 99810560 99803584 99818152 99825112 99782624 99729520 
2717.332 99711984 99737896 99720392 99677784 99632888 99570696 99506984 
2730.831 99469448 99468840 99476112 99486744 99514792 99535144 99568712 
2744.331 99552384 99540552 99568544 99599280 99632496 99643280 99633144 
2757.830 99625832 99587584 99573696 99557864 99530192 99512096 99512440 
2771.329 99511992 99464472 99452416 99457848 99374592 99274952 99245576 
2784.828 99274408 99223504 99166696 99131376 99118152 99094720 99052976 
2798.328 99009336 98969256 98880776 98783472 98756336 98696640 98627808 
2811.827 98601824 98599232 98628704 98678520 98683560 98642072 98593296 
2825.326 98537968 98521040 98495576 98431352 98375656 98364376 98291616 
2838.825 98246696 98281248 98300696 98236128 98141872 98044392 97988512 
2852.325 97898632 97781864 97616256 97437176 97227256 96992896 96690768 
2865.824 96314016 95811856 95140256 94336232 93458544 92584488 91743400 
2879.323 91084984 90709016 90616776 90709320 90933032 91160304 91264760 
2892.823 91201672 91045032 90867832 90655696 90384600 90141624 89966528 
2906.322 89863576 89886544 90018416 90271176 90643872 91023808 91353880 
2919.821 91598664 91748272 91743056 91580088 91257096 90673864 89718504 
2933.320 88399320 86723808 84969448 83780536 83807880 85095824 86953056 
2946.820 88685288 89970264 90777136 91187960 91356536 91358088 91142168 
2960.319 90626288 89872616 88890656 87559560 85815232 83781032 81640640 
2973.818 79692224 78352832 77940168 78640400 80303920 82547776 84962336 
2987.317 87247728 89300920 91065376 92540776 93755672 94697856 95458096 
3000.817 96067848 96520760 96919936 97248016 97535856 97761912 97912544 
3014.316 97990976 98119088 98237472 98326176 98384712 98430384 98532256 
3027.815 98637304 98653824 98650032 98702152 98764104 98799392 98831632 
3041.314 98842480 98871952 98938872 99040920 99052880 99017280 99104304 
3054.814 99159464 99138536 99181880 99212544 99186552 99195024 99230856 
3068.313 99256736 99246936 99243504 99314512 99288696 99242032 99264000 
3081.812 99258016 99265688 99328912 99394344 99408672 99387384 99389560 
3095.312 99473160 99462416 99374256 99393880 99448336 99476728 99484920 
3108.811 99510896 99525008 99499232 99449888 99466960 99498184 99496504 
3122.310 99462944 99478792 99503912 99522744 99462712 99456608 99501192 
3135.809 99557864 99529440 99475040 99520504 99520840 99472688 99511432 
3149.309 99540344 99511744 99442808 99395064 99498056 99601776 99567112 
3162.808 99527400 99516520 99484960 99431552 99421312 99469496 99525152 
3176.307 99482880 99438384 99458952 99444928 99472520 99559312 99578184 
3189.806 99539144 99529064 99579880 99594968 99553288 99502416 99527128 
3203.306 99537056 99591864 99636800 99614680 99599752 99620992 99647984 
3216.805 99604328 99583984 99596592 99634880 99652272 99649440 99672056 
3230.304 99630800 99587840 99572144 99631840 99635296 99575416 99594352 
3243.803 99677624 99741376 99780880 99769824 99704544 99624872 99616928 
3257.303 99660664 99643264 99683280 99725192 99663248 99672032 99707976 
3270.802 99713936 99676528 99653040 99624344 99660104 99697264 99690128 
3284.301 99650000 99692328 99745016 99706968 99622736 99623832 99680024 
3297.801 99703640 99683760 99682264 99681384 99618136 99547208 99616824 
3311.300 99729992 99772152 99744296 99732224 99694320 99690456 99749112 
3324.799 99795624 99779008 99711648 99723960 99723768 99694504 99739904 
3338.298 99791816 99805464 99776400 99790544 99745056 99689208 99699960 
3351.798 99730616 99743664 99716656 99677368 99686160 99711648 99674056 
3365.297 99602736 99594992 99619088 99636864 99662080 99723800 99725336 
3378.796 99676880 99697680 99737072 99737248 99689768 99575312 99490040 
3392.295 99481672 99473080 99465920 99448216 99429816 99417248 99343112 
3405.795 99308528 99359640 99398928 99299304 99196744 99155784 99202000 
3419.294 99288256 99353752 99402264 99446264 99469912 99500968 99526560 
3432.793 99526680 99548240 99624408 99727352 99731752 99740424 99758976 
3446.292 99744584 99763504 99717064 99783328 99802288 99761704 99694968 
3459.792 99696168 99723600 99710192 99686880 99674288 99692336 99763336 
3473.291 99803664 99748280 99674400 99665456 99667288 99696408 99778488 
3486.790 99748384 99684080 99645176 99688656 99627832 99596144 99670536 
3500.290 99668520 99741592 99741184 99688704 99652560 99617888 99656400 
3513.789 99676568 99679400 99695896 99679928 99628208 99586448 99607504 
3527.288 99581968 99572920 99620416 99513192 99416336 99492848 99537128 
3540.787 99456176 99404880 99420688 99433104 99440608 99427304 99520144 
3554.287 99525776 99472856 99480856 99527104 99559376 99495168 99388040 
3567.786 99395504 99612768 99731968 99739872 99678136 99541296 99497800 
3581.285 99592904 99639904 99525768 99396584 99519760 99524832 99456096 
3594.784 99418272 99525832 99630936 99460448 99457192 99486448 99399008 
3608.284 99358416 99399392 99335368 99399416 99336112 99097512 99236808 
3621.783 99457376 99372904 99249064 99029744 99204048 99428368 99464664 
3635.282 99627832 99555152 99502032 99542728 99439848 99323128 99042704 
3648.781 98942032 99167160 99427864 99604728 99617728 99584328 99631320 
3662.281 99649000 99677592 99712512 99416176 99085848 99343520 99403504 
3675.780 99325976 99537648 99598624 99620512 99754856 99771536 99503144 
3689.279 99351600 99540808 99758712 99755112 99790432 99701296 99610640 
3702.779 99766936 99853096 99740600 99494808 99398824 99589248 99741720 
3716.278 99763536 99772944 99785304 99761832 99760600 99577504 99780832 
3729.777 99843368 99505624 99292616 99381832 99729000 99783744 99650528 
3743.276 99460856 99415720 99438184 99417256 99386336 99646984 99752768 
3756.776 99577424 99617560 99836648 99779552 99595952 99689728 99688976 
3770.275 99790840 99839336 99796056 99839392 99749904 99964888 100017152 
3783.774 99809128 99980768 99986128 99832360 99838888 99895464 99955840 
3797.273 99900448 99767424 99699984 99645360 99531208 99615928 99916944 
3810.773 99975872 99879112 99636440 99604184 99647352 99302808 99564752 
3824.272 99904640 99790832 99787680 99760904 99727456 99697560 99377864 
3837.771 99583176 99820128 99680560 99775656 99856168 99923864 99878504 
3851.271 99450600 99383800 99739488 99714352 99710392 99695008 99713528 
3864.770 99695648 99594624 99447976 99625808 99703064 99682440 99818328 
3878.269 99732168 99608528 99661312 99662712 99768944 99821048 99666400 
3891.768 99675600 99672896 99772056 99756968 99626408 99813856 99750776 
3905.268 99634920 99878288 99967384 99885088 99811080 99735088 99791224 
3918.767 99866304 99801464 99762744 99751216 99817168 99787168 99712936 
3932.266 99796496 99926320 99922928 99950608 99957376 99866792 99807944 
3945.765 99848216 99862992 99895832 99940336 99906080 99846064 99846864 
3959.265 99878520 99910328 99937008 99911128 99900280 99897464 99873424 
3972.764 99825728 99887600 99953328 99855640 99816912 99838912 99794568 
3986.263 99824560 99886072 99846656 99822792 99848432 99922568 99912536 
3999.762 99813544 

##END= $$Enod of data block


##END= $$ End of link block