##TITLE=Ethanol  $$Beginning of link block
##JCAMP-DX= 4.24
##DATA TYPE=LINK
##ORIGIN= DePauw University
##OWNER=Jeff Hansen
##BLOCKS=3
##TITLE=Ethanol $$Beginning of structure block
##JCAMP-CS=3.7 $$ChemDoodle Version 8.0.1
##DATA TYPE=STRUCTURE
##ORIGIN=DePauw University
##OWNER=Jeff Hansen
##BLOCK ID=1
##CROSS REFERENCE=IR PEAK ASSIGNMENTS: BLOCK ID=2
##MOLFORM=C5 H12 O
##ATOMLIST=
1 C 0
2 C 3
3 C 3
4 C 3
5 O 0
6 H 0
7 H 0
8 H 0
9 H 0
10 H 0
11 H 0
12 H 0
13 H 0
14 H 0
15 C 3
16 H 0
17 H 0
18 H 0
##BONDLIST=
1 2 S
1 3 S
1 4 S
1 5 S
2 6 S
2 7 S
2 8 S
3 9 S
3 10 S
3 11 S
4 12 S
4 13 S
4 14 S
5 15 S
15 16 S
15 17 S
15 18 S
##DATE=16/05/07
##TIME=12:26:34
##MAX_RASTER=792
##XY_RASTER_FACTOR=10000
##XY_RASTER=
1 1190000 2170000 0 
2 1190000 1970000 0 
3 990000 2170000 0 
4 1190000 2370000 0 
5 1390000 2170000 0 
6 1363205 1870000 0 
7 1016794 1870000 0 
8 1190000 1770000 0 
9 890000 1996794 0 
10 890000 2343205 0 
11 790000 2170000 0 
12 1016794 2470000 0 
13 1363205 2470000 0 
14 1190000 2570000 0 
15 1590000 2170000 0 
16 1690000 2343205 0 
17 1690000 1996794 0 
18 1790000 2170000 0 

##END= $$ End of structure block
##TITLE=Ethanol $$Beginning of assignment block
##JCAMP-DX=4.24
##DATA TYPE=IR PEAK ASSIGNMENTS
##ORIGIN= DePauw University
##OWNER= Jeff Hansen
##BLOCK ID=2
##CROSS REFERENCE=STRUCTURE: BLOCK ID=1
##DATA CLASS=ASSIGNMENTS
##NPOINTS=7
##XUNITS=1/CM
##YUNITS=TRANSMITTANCE
##PEAK ASSIGNMENTS=(XYMA)
(3400,1.00, ,<9>)
(2000,0.34, ,<14>)
(1700,0.34, ,<15>)
(1500,0.34, ,<12>)
(1200,0.34, ,<13>)
(1000,0.16, ,<17>)
(850,0.16, ,<16>)

##END= $$End of assignment block
##TITLE=Ethanol $$Beginning of data block
##JCAMP-DX=4.24
##DATA TYPE=IR SPECTRUM
##ORIGIN= DePauw University
OWNER= Jeff Hansen
##BLOCK ID=3
##XUNITS=1/CM
##YUNITS=TRANSMITTANCE
##FIRSTX=399.212341
##LASTX=3999.837646
##FIRSTY=0.864241
##MAXX=3999.837646
##MINX=399.212341
##MAXY=1.056695
##MINY=0.254081
##XFACTOR=1.000000
##YFACTOR=1.000000E-008
##NPOINTS=1868
##DELTAX=1.928562
##XYDATA=(X++(Y..Y))
399.212 86424152 85953136 85039640 84301816 85324032 86348360 85489464 
412.712 84572128 84537504 83936728 82706208 81060192 80222496 80046728 
426.212 79189512 77667760 77516880 77921032 78500232 79633592 80733544 
439.712 81455136 81606280 82103400 83040176 83554096 83593864 83830352 
453.212 84014784 83913352 83699160 84080320 84143488 83069072 81954128 
466.712 81065424 80655456 81268792 82986720 85407408 87206400 88277296 
480.212 88552088 87863048 86870144 86449704 86277832 85894736 85590776 
493.712 85535232 85581760 85729256 85594112 85359592 85370408 85408384 
507.212 85360200 85556640 85716368 85803808 85675920 85355416 85011120 
520.712 84833080 84597640 84362192 84224432 84138816 83867632 83718832 
534.212 83370288 83032472 83022152 82916848 82758904 82582152 82285960 
547.712 82163200 82098088 81966376 81771888 81415784 81133344 81016920 
561.212 80953768 80789608 80498104 80307160 80152120 80028992 79797664 
574.712 79531520 79299808 79177816 78890888 78667104 78488200 78297040 
588.212 78154184 77885208 77619040 77420008 77079184 76883816 76802096 
601.712 76683496 76476152 76375544 76275312 76166792 75990784 75776336 
615.213 75644784 75571176 75419800 75328840 75405464 75526584 75665184 
628.713 75819448 75928128 76001864 75964624 75845840 75783928 75710960 
642.213 75701120 75698128 75715656 75707968 75739064 75819144 75888568 
655.713 75946984 75968640 76051080 76239104 76427688 76365072 75970136 
669.213 76229768 76739192 76971696 77249872 77377184 77512648 77767208 
682.713 78045256 78277080 78521256 78632128 78838360 79167864 79501648 
696.213 79724800 79967648 80217216 80455176 80726064 80998952 81286976 
709.713 81563424 81771920 82044264 82276360 82512272 82737304 82941856 
723.214 83195864 83512456 83730816 83927912 84224648 84512528 84723944 
736.714 84905096 85123976 85319376 85514968 85749520 85958576 86152392 
750.214 86339664 86545040 86815160 87078000 87230712 87406448 87588160 
763.714 87823704 87970768 88140968 88382864 88573080 88751216 88945376 
777.214 89113848 89276992 89429664 89575344 89699080 89803480 89849144 
790.714 89755576 89596264 89398264 89030192 88507912 87888040 87356024 
804.214 87391600 88064232 88909384 89752224 90469120 91088936 91523048 
817.714 91823416 92191480 92499696 92722576 92915288 93061464 93221496 
831.214 93449472 93605912 93705696 93779544 93803792 93818616 93879368 
844.715 93938248 93966544 94009632 94019448 93901688 93768512 93666040 
858.215 93409496 93026144 92527512 91757368 90577224 88788184 86030128 
871.715 81797544 75669128 68039992 60705096 56933168 58437772 63661192 
885.215 69923912 75936208 81160016 85271344 88291512 90381664 91798312 
898.715 92893096 93697264 94304048 94782440 95200512 95506872 95771936 
912.215 96027392 96213400 96347296 96450640 96536712 96683616 96758992 
925.715 96799784 96864952 96944976 97001264 97038568 97033424 97029024 
939.215 96991064 96980264 97026232 97057728 97070864 97034936 97005232 
952.716 96998888 96929456 96899168 96899368 96882528 96839920 96756984 
966.216 96750088 96690400 96595440 96493928 96421216 96348232 96208744 
979.716 96071472 95938680 95783184 95645704 95498376 95325704 95105088 
993.216 94854304 94570416 94229368 93848976 93473424 93052104 92530648 
1006.716 91950040 91327416 90586128 89703680 88719728 87558296 86164384 
1020.216 84526776 82546616 80109880 77104848 73476392 69250032 64269668 
1033.716 58479276 51780616 44438056 37202652 31139322 26977006 25408100 
1047.216 26513720 30316616 36331028 43909752 52087372 59935072 66432372 
1060.717 71131232 74002368 75468968 75936664 75688560 74744624 73185248 
1074.217 71033008 68476224 65605164 62635292 59716916 57230804 55517152 
1087.717 55058784 55913640 58295500 61917392 66328360 70929240 75383912 
1101.217 79305432 82502632 85016896 86982632 88527216 89678640 90516416 
1114.717 91156256 91605640 91960224 92222248 92422040 92607320 92816576 
1128.217 93040560 93207360 93363712 93564008 93742848 93902568 94050560 
1141.717 94165000 94280664 94367736 94428432 94525840 94597080 94681488 
1155.217 94826104 94994392 95152824 95320944 95512928 95682616 95826560 
1168.718 95963856 96067584 96148768 96218728 96243416 96264024 96294664 
1182.218 96303816 96320736 96361200 96379256 96350208 96321776 96303448 
1195.718 96297336 96303688 96293208 96271160 96252112 96232568 96212472 
1209.218 96201032 96157312 96102840 96058504 96015944 95962832 95901784 
1222.718 95858264 95799816 95722232 95655144 95631192 95564184 95476960 
1236.218 95398672 95306184 95162264 95029968 94919416 94783840 94623552 
1249.718 94466984 94268392 94025720 93791720 93512472 93124240 92702488 
1263.218 92256264 91724968 91117208 90456072 89889696 89556472 89529360 
1276.719 89819568 90259264 90708320 91096584 91412808 91585368 91604032 
1290.219 91542040 91427960 91261344 91051464 90765832 90462816 90108192 
1303.719 89763280 89402832 89062656 88740968 88411856 88123424 87889568 
1317.219 87627136 87445488 87337640 87246016 87128088 87059744 87080896 
1330.719 87173400 87268192 87375000 87445872 87585656 87839488 88155448 
1344.219 88402760 88631464 88824384 89005088 89130496 89157496 89190216 
1357.719 89277584 89218560 89017640 88742352 88173576 86984768 85444384 
1371.219 83770472 82181288 81022752 80343280 79926368 80162584 80915960 
1384.719 81967408 83042200 84173992 84964960 85353480 85580112 85849096 
1398.220 85885304 85933744 85963280 85748352 85650752 85665424 85403616 
1411.720 85292384 85281936 85102128 84830360 84770024 84943768 85093080 
1425.220 85384096 85565472 85534360 85811872 86072512 86094352 86081152 
1438.720 86395344 86475216 86442536 86167056 85778144 85560704 85648472 
1452.220 85541808 85398600 85165432 85681824 86895520 87847104 88401776 
1465.720 89231184 89987752 90375800 90571072 90975880 91362408 91695496 
1479.220 91918088 91997984 92215944 92211424 92233968 92657720 93536872 
1492.720 94359448 94731496 94928704 95279136 95783176 96000712 95963896 
1506.221 95421816 95901624 96615632 96868640 96925976 96829656 96829960 
1519.721 96817160 96751176 97122792 97310808 97567736 97887600 97808528 
1533.221 97569744 97870400 97831608 97287288 97271840 97580464 97733312 
1546.721 98289360 98308008 98107632 98379944 98261872 97970672 97419760 
1560.221 97740072 98279064 98506192 98633464 98428480 98244736 98685936 
1573.721 98741000 98509424 98790928 98911992 98896576 99067728 99165928 
1587.221 99101808 99100936 99168104 99253168 99447424 99349792 99229496 
1600.721 99330856 99351776 99375488 99468656 99295040 99327720 99607856 
1614.222 99485240 99062448 99260128 99441320 99403152 99626912 99500744 
1627.722 99322856 99641872 99632464 99214888 99015232 99142992 99376120 
1641.222 99723664 99654368 99176136 98911216 99225656 99237664 98704048 
1654.722 99115408 99388584 99604976 99644032 99435408 99429648 99667952 
1668.222 99411144 99413112 99737872 99445928 99378752 99725248 99694424 
1681.722 99390664 99141688 99328528 99791336 100059400 99960152 99942944 
1695.222 99693304 99524824 99278096 99391608 99812480 99694096 99855104 
1708.722 100109136 100163888 99988240 99790504 99638120 99863472 100049904 
1722.223 100132856 100172280 100265160 100206328 100091600 100046280 
1733.794 99709208 100110248 100197032 100101720 100308384 100237424 
1745.366 100172296 100109480 100016528 100170376 100408352 100282144 
1756.937 100191512 100308920 100238240 100263768 100437616 100396432 
1768.509 100497072 100532768 100187872 100449480 100648224 100619000 
1780.080 100707184 100777888 100794616 100985232 101049544 100844112 
1791.652 100836648 100919360 100998928 101133640 101151632 101044632 
1803.223 101245920 101349008 101393800 101413904 101349808 101492520 
1814.795 101659920 101747320 101880240 101838480 101719200 101716640 
1826.366 101767352 101805672 101851880 102013568 102074200 102096832 
1837.938 102122856 102054488 101992816 102049552 102057720 102021432 
1849.509 102054952 102253664 102217032 102141480 102225936 102214312 
1861.081 102220520 102332920 102400144 102255456 102207688 102398000 
1872.652 102516112 102570072 102613368 102654736 102592424 102525664 
1884.224 102558536 102561000 102651656 102698408 102714472 102709976 
1895.796 102685720 102813192 102809096 102749024 102854344 102987248 
1907.367 102973680 102826648 102695376 102556464 102341184 102101576 
1918.939 101919976 101980128 102174208 102542904 102648696 102701696 
1930.510 103192776 103551736 103598048 103681920 103642760 103788552 
1942.082 104235600 104506624 104592200 104721656 104898800 105277312 
1953.653 105213144 104711176 104810440 105102848 105190296 105383264 
1965.225 105394792 105669536 105528896 104886176 104447544 104505032 
1976.796 104775432 104715688 104468832 104140784 103447024 103163656 
1988.368 103486976 103197800 102308096 102402920 102711296 102252216 
1999.939 102077416 102766360 103187648 103095280 102290192 101603080 
2011.511 102425128 103249312 102800464 102117288 102086200 101843624 
2023.082 101585752 101673064 101495616 100960992 100851560 100685680 
2034.654 100540984 100513096 100500256 100170176 99734792 99801176 100350216 
2048.154 99958512 99794296 100224496 100338496 100117872 100144536 100192096 
2061.653 100264608 100364200 100440384 100781568 100870304 100720112 
2073.224 100683128 100658336 100549144 100730680 100882656 100951400 
2084.795 100870584 100904560 101054848 101234368 101130880 101009176 
2096.366 101041616 101076336 100986736 101067816 101284448 101465864 
2107.937 101542952 101413240 101143920 101056160 101225296 101332304 
2119.507 101422904 101635872 101751792 101685320 101762792 102105976 
2131.078 102168832 102106304 102371408 102290664 102142904 102754272 
2142.649 103192160 103030408 103165392 103817160 103878832 104009712 
2154.220 104226072 104291048 103893664 103126728 101992376 101245496 
2165.791 101599432 101801640 101432848 101594696 101658440 100879624 
2177.361 100372040 100321688 100662304 100490680 99694304 99853976 99810176 
2190.861 99383128 99299688 99134784 98993472 99036480 99184760 99123344 
2204.360 98607128 98073408 98040432 98161408 98281536 98265112 98345360 
2217.859 97995744 97728360 98135464 98398472 98038576 97536608 97389296 
2231.358 97549208 97588392 97376080 97297048 97492016 97567936 97532440 
2244.858 97501664 97381080 97480632 97583536 97342848 97081416 97181576 
2258.357 97476352 97486584 97351144 97264632 97401032 97476384 97426808 
2271.856 97486816 97753960 97843376 97678680 97732512 97951384 98224208 
2285.355 98264472 98209032 98210144 98288880 98394792 98447128 98529832 
2298.855 98600144 98599872 98550784 98518032 98600888 98662568 98719088 
2312.354 98760624 98695144 98552976 98498600 98475936 98386904 98382392 
2325.853 98499888 98579480 98609552 98637432 98653344 98669552 98646128 
2339.353 98613480 98645968 98675480 98766200 99139496 99345968 99111744 
2352.852 98827360 98602384 98391984 98326672 98246440 98245392 98276976 
2366.351 98337200 98557240 98876376 99116520 99379280 99707152 99944232 
2379.850 100023400 100129344 100179760 100222160 100265072 100295592 
2391.421 100313040 100331752 100336168 100406048 100483304 100485256 
2402.992 100465048 100493224 100599184 100562408 100450224 100468360 
2414.563 100613064 100628384 100644360 100593584 100513752 100541704 
2426.134 100514400 100457360 100497544 100511104 100532976 100558152 
2437.704 100611376 100524776 100367144 100410008 100418616 100345816 
2449.275 100278088 100257288 100336032 100282800 100160040 100131032 
2460.846 100137448 100101112 100104736 100041816 99940416 99898264 99936072 
2474.345 100008880 99931616 99807808 99791432 99856800 99835936 99706856 
2487.844 99723608 99715848 99598144 99522000 99503968 99487832 99393456 
2501.344 99377184 99382504 99383288 99371000 99305400 99248104 99205408 
2514.843 99223192 99180512 99079752 99041904 99071048 98997872 98969224 
2528.342 98957880 98904064 98910680 98886904 98756600 98680704 98626216 
2541.842 98535416 98528528 98625736 98530600 98397432 98449128 98495280 
2555.341 98518552 98507760 98473376 98344296 98208584 98272096 98300912 
2568.840 98197704 98114040 98018336 97942888 97988800 98013752 97956072 
2582.339 97997640 98031552 97914848 97847920 97925288 98005680 97930608 
2595.839 97770976 97695256 97697744 97735440 97687080 97667904 97739216 
2609.338 97731464 97658160 97614608 97642936 97609992 97560312 97583408 
2622.837 97618960 97630768 97624400 97621136 97650376 97646016 97634632 
2636.336 97703376 97799400 97856808 97863528 97891144 97934200 97999664 
2649.836 98051088 98056624 98100440 98168296 98209760 98193480 98175680 
2663.335 98194464 98231112 98268608 98281216 98224848 98194432 98214576 
2676.834 98182448 98167408 98141032 98114192 98103784 98076256 97997544 
2690.333 97924800 97897168 97859888 97801040 97754032 97694064 97653800 
2703.833 97650488 97616880 97558112 97531664 97533352 97504592 97446048 
2717.332 97384976 97276184 97199752 97169720 97143696 97168888 97191992 
2730.831 97148008 97121720 97141232 97138520 97104192 97075672 97076696 
2744.331 97101744 97113848 97148520 97158280 97141440 97146616 97152672 
2757.830 97165280 97197104 97210000 97201968 97171240 97171920 97192408 
2771.329 97161640 97052136 97008632 97017848 96941504 96839664 96805544 
2784.828 96730696 96580536 96438296 96383440 96320648 96152376 95943392 
2798.328 95772048 95595144 95416504 95217008 95039808 94888232 94714392 
2811.827 94560192 94442768 94295592 94168472 94010440 93804840 93584160 
2825.326 93355440 93164680 92977112 92709408 92399352 92143248 91907840 
2838.825 91628968 91399408 91164512 90858824 90511640 90154400 89824320 
2852.325 89412552 88887336 88354968 87750192 87040024 86312032 85585400 
2865.824 84855832 84064008 83266096 82587408 82111448 81798296 81556352 
2879.323 81490408 81505152 81558024 81654384 81830784 82038408 82248888 
2892.823 82419784 82621984 82854160 83165144 83522768 83969840 84460080 
2906.322 84928952 85311032 85585544 85714648 85730520 85696736 85572784 
2919.821 85358808 85085040 84807488 84571888 84457624 84637768 85002896 
2933.320 85412456 85828304 86246952 86638536 86993216 87285112 87631000 
2946.820 87932432 88078920 87989504 87617704 86995328 86086824 84782928 
2960.319 83070496 80876072 78270320 75451624 72695584 70511872 69465960 
2973.818 69750688 71360904 74063216 77353768 80667968 83663352 86221104 
2987.317 88319432 90007384 91373256 92443840 93315792 93978920 94542976 
3000.817 95001616 95377712 95678328 95911448 96114168 96264256 96387536 
3014.316 96486232 96562168 96633352 96757312 96928120 96941176 96883656 
3027.815 96920272 96941288 96909176 96897976 96962576 97036312 96997696 
3041.314 96932888 96910960 96906048 96918256 96909464 96909840 96876168 
3054.814 96857576 96887464 96895152 96820624 96709568 96583120 96526944 
3068.313 96554808 96556064 96484168 96435120 96327720 96200608 96138016 
3081.812 96081120 95959608 95862056 95828736 95766808 95735480 95666032 
3095.312 95567416 95435488 95339080 95257656 95160672 95060576 94963456 
3108.811 94893016 94807768 94619104 94407912 94239304 94151776 94062000 
3122.310 93906016 93768320 93643384 93453632 93317704 93184352 93012400 
3135.809 92860920 92702736 92497728 92321984 92171288 92010720 91829424 
3149.309 91597408 91345392 91169016 90981328 90768032 90607800 90387608 
3162.808 90135232 89909000 89691160 89508136 89319336 89087408 88819448 
3176.307 88567656 88331920 88022440 87728432 87480448 87199088 86970936 
3189.806 86730968 86472208 86166328 85906704 85666768 85452712 85203592 
3203.306 84960544 84675320 84360384 84073520 83834384 83600904 83333792 
3216.805 82982632 82682320 82385720 82109248 81883904 81601352 81312288 
3230.304 81026944 80735824 80463384 80248792 80059712 79835256 79608520 
3243.803 79385352 79190376 78993920 78737944 78482304 78281120 78088552 
3257.303 77885768 77692248 77448040 77242552 77095888 76971144 76818320 
3270.802 76645104 76452480 76256512 76176944 76058680 75915304 75797808 
3284.301 75666504 75528392 75454320 75329344 75203664 75123568 75061808 
3297.801 75014704 74978304 74902720 74796080 74758128 74735592 74735872 
3311.300 74744320 74684976 74595200 74547608 74543952 74515424 74511456 
3324.799 74561216 74675192 74804344 74858192 74867352 74870824 74890184 
3338.298 74905432 75012888 75161848 75359440 75502032 75569592 75705184 
3351.798 75878768 76056040 76247600 76375528 76533272 76743000 76934528 
3365.297 77140880 77356200 77527976 77749544 78046592 78252736 78438768 
3378.796 78716968 78970984 79197432 79400792 79700136 80053480 80311664 
3392.295 80498592 80725632 80986352 81243272 81549432 81860264 82152408 
3405.795 82449448 82759456 83049680 83306256 83527032 83747768 83955336 
3419.294 84200576 84477936 84783208 85055608 85265040 85487240 85727600 
3432.793 86021120 86327520 86505824 86631912 86928600 87210152 87447408 
3446.292 87709352 88025576 88313048 88567088 88880240 89106160 89280112 
3459.792 89586256 89900784 90153904 90370264 90559504 90788304 91046032 
3473.291 91234416 91422744 91663736 91896160 92139312 92396512 92617296 
3486.790 92838848 93095056 93335728 93545024 93699920 93889176 94092112 
3500.290 94293728 94465080 94642408 94936336 95125600 95323656 95560424 
3513.789 95747048 95893656 96050240 96207944 96349992 96505816 96678040 
3527.288 96903408 97097944 97261064 97402608 97658400 97912880 97976176 
3540.787 98005104 98125088 98133392 98192280 98505368 98710112 98788608 
3554.287 99002216 99174696 99190488 99307120 99359784 99360680 99181536 
3567.786 99158216 99571792 99726360 99698680 99902616 100135936 100184632 
3581.285 100249336 100347840 100246264 100133944 100348856 100367176 
3592.856 100169208 100269176 100523712 100611432 100685952 100792056 
3604.427 100759656 100756896 100579928 100439576 100518104 100432016 
3615.998 100483464 100592992 100623920 100801480 100831240 100832240 
3627.568 100514224 100374472 100616120 100589624 100812040 100897872 
3639.139 100838768 100856568 100992672 101028168 100687616 100059904 
3650.710 100082248 100654472 100773728 100518272 100847720 100841120 
3662.281 100912880 101204968 100954616 100556008 100545376 100487400 
3673.852 99909712 99676288 100128920 100289832 100715984 100914632 100655240 
3687.351 100401536 100186776 100167784 100619976 100834096 100617496 
3698.922 100318744 100356584 100543992 100729224 100764408 100404760 
3710.492 100470592 100408384 100719984 100606560 100559040 100892728 
3722.063 100798672 100578712 100565376 100822536 100471672 100142960 
3733.634 99601352 99284672 99734248 100227800 99938864 99293808 99519312 
3747.133 99741512 99228160 99121840 99561456 99856216 100010848 99961920 
3760.633 99891496 100250376 99822056 99935712 100004784 99944016 100183800 
3774.132 100287104 100555024 100403256 100204176 100183800 100429704 
3785.703 100781296 100790512 100821560 101049136 100808704 100567624 
3797.273 100512776 100298624 99996584 100491488 100603632 100311552 
3808.844 100802784 100989616 100867976 100759032 100170328 100117704 
3820.415 100259112 100495976 100673504 100587200 100624696 100502992 
3831.986 100495104 100573840 100299920 99904144 100153008 100501728 
3843.557 100447376 100538528 100677096 100462688 100239032 99863792 99911856 
3857.056 100558216 100678216 100625584 100488896 100187072 100138704 
3868.627 100200512 100429520 100593080 100530288 100618592 100511720 
3880.198 100292240 100300264 100140560 100264064 100834192 100479840 
3891.768 100403192 100637400 100539688 100389672 100417016 100128936 
3903.339 100095472 100584728 100760040 100813800 100786160 100660744 
3914.910 100584808 100668320 100597152 100721384 100792680 100639560 
3926.481 100701416 100609168 100509344 100543064 100785088 101027336 
3938.052 101112344 100896056 100707648 100812464 100761520 100655624 
3949.622 100780040 100872592 100922168 100999704 100929600 100936296 
3961.193 100998216 100989320 101070928 101073472 101019000 101045024 
3972.764 101077288 101073752 101054776 101057640 101080824 101148272 
3984.335 101190632 101202488 101127744 101031920 101000576 101044080 
3995.906 101076936 101106032 101126768 
##END= $$Enod of data block


##END= $$ End of link block