##TITLE=t-Butyl Methyl Ether  $$Beginning of link block
##JCAMP-DX= 4.24
##DATA TYPE=LINK
##ORIGIN= DePauw University
##OWNER=Jeff Hansen
##BLOCKS=3
##TITLE=t-Butyl Methyl Ether $$Beginning of structure block
##JCAMP-CS=3.7 $$ChemDoodle Version 8.0.1
##DATA TYPE=STRUCTURE
##ORIGIN=DePauw University
##OWNER=Jeff Hansen
##BLOCK ID=1
##CROSS REFERENCE=IR PEAK ASSIGNMENTS: BLOCK ID=2
##ORIGIN=null
##OWNER=UNKNOWN
##MOLFORM=C5 H12 O
##ATOMLIST=
1 C 0
2 C 3
3 C 3
4 C 3
5 O 0
6 H 0
7 H 0
8 H 0
9 H 0
10 H 0
11 H 0
12 H 0
13 H 0
14 H 0
15 C 3
16 H 0
17 H 0
18 H 0
##BONDLIST=
1 2 S
1 3 S
1 4 S
1 5 S
2 6 S
2 7 S
2 8 S
3 9 S
3 10 S
3 11 S
4 12 S
4 13 S
4 14 S
5 15 S
15 16 S
15 17 S
15 18 S
##DATE=16/05/07
##TIME=12:26:34
##MAX_RASTER=792
##XY_RASTER_FACTOR=10000
##XY_RASTER=
1 1190000 2170000 0 
2 1190000 1970000 0 
3 990000 2170000 0 
4 1190000 2370000 0 
5 1390000 2170000 0 
6 1363205 1870000 0 
7 1016794 1870000 0 
8 1190000 1770000 0 
9 890000 1996794 0 
10 890000 2343205 0 
11 790000 2170000 0 
12 1016794 2470000 0 
13 1363205 2470000 0 
14 1190000 2570000 0 
15 1590000 2170000 0 
16 1690000 2343205 0 
17 1690000 1996794 0 
18 1790000 2170000 0 
##END= $$ End of structure block
##TITLE=t-Butyl Methyl Ether $$Beginning of assignment block
##JCAMP-DX=4.24
##DATA TYPE=IR PEAK ASSIGNMENTS
##ORIGIN= DePauw University
##OWNER= Jeff Hansen
##BLOCK ID=2
##CROSS REFERENCE=STRUCTURE: BLOCK ID=1
##DATA TYPE=IR PEAK ASSIGNMENTS
##DATA CLASS=ASSIGNMENTS
##ASSIGNMENT TYPE=BOND
##NPOINTS=5
##XUNITS=1/CM
##YUNITS=TRANSMITTANCE
##PEAK ASSIGNMENTS=(XYWA)
(2974,1, ,<2>)
(2974,1, ,<3>)
(2974,1, ,<4>)
(2974,1, ,<6>)
(2974,1, ,<7>)
(2974,1, ,<8>)
(2974,1, ,<9>)
(2974,1, ,<10>)
(2974,1, ,<11>)
(2974,1, ,<12>)
(2974,1, ,<13>)
(2974,1, ,<14>)
(2974,1, ,<15>)
(2974,1, ,<16>)
(2974,1, ,<17>)
(2974,1, ,<18>)
(1083,1.00, ,<1>)
(1083,1.00, ,<5>)
(1083,1.00, ,<15>)
$$PEAK WIDTH=1/CM
##END= $$End of assignment block
##TITLE=t-Butyl Methyl Ether $$Beginning of data block
##JCAMP-DX=4.24
##DATA TYPE=IR SPECTRUM
##ORIGIN= DePauw University
OWNER= Jeff Hansen
##BLOCK ID=3
##LONGDATE=2015/11/02
##TIME=09:53:57
##DATA PROCESSING=
Ratio against background
Truncated
ElementMultiply or ElementDivide
##XUNITS=1/CM
##YUNITS=TRANSMITTANCE
##FIRSTX=399.212341
##LASTX=3999.837646
##FIRSTY=0.958893
##MAXX=3999.837646
##MINX=399.212341
##MAXY=1.021671
##MINY=0.320337
##XFACTOR=1.000000
##YFACTOR=1.000000E-008
##NPOINTS=1868
##DELTAX=1.928562
##XYDATA=(X++(Y..Y))
399.212 95889336 95604568 95243656 94355720 94153112 94096208 93691920 
412.712 92657872 92599144 93307080 94932648 95782200 95478672 95744104 
426.212 96520072 96874952 96749944 96598800 96340512 96281304 96531352 
439.712 96938056 97109472 96691480 96083760 95129288 94264952 92799320 
453.212 90505528 87789296 85331456 84261072 84738864 86481904 88277160 
466.712 89251472 88718760 87583448 88196272 91092752 94930912 97494904 
480.212 97965384 97456280 97283352 96840312 96217800 95911992 95872128 
493.712 95949280 95819064 95654368 95567696 95320400 94754344 94286312 
507.212 93995680 94085672 94763464 95852600 96864544 97608184 97991856 
520.712 98293736 98500840 98519856 98291032 98304664 98384752 98354160 
534.212 98415304 98606760 98705552 98708304 98714400 98688176 98718296 
547.712 98747224 98902256 99011592 98949192 99067336 99348496 99343208 
561.212 99442440 99495752 99467968 99615440 99877864 100013224 99957296 
574.712 99900336 99955928 100104928 100060056 100005352 99994728 99931520 
588.212 99878240 99981800 99943736 99800232 99704128 99699280 99798224 
601.712 99812568 99712984 99639392 99621840 99518240 99458824 99370920 
615.213 98694792 97380768 97740104 98216240 97649784 97003416 96655368 
628.713 96916496 97290432 97608344 97676896 97591080 97251520 96774304 
642.213 96207344 95627792 94830944 93757560 93418448 93582432 93216840 
655.713 92803120 92507376 92565552 92632880 93093696 92914760 88229960 
669.213 83074712 88133920 89789592 89478504 89167776 89226600 89534808 
682.713 89946872 90415344 91024848 91470968 92071496 92823344 93517720 
696.213 94229840 95001808 95738984 96385248 96858568 97241832 97471456 
709.713 97549176 97367984 96964816 96137288 94245544 90263376 85468840 
723.214 80949776 79718008 84844024 91060664 94791888 96656488 97717200 
736.714 98331176 98718944 98951208 99188616 99390936 99545920 99667008 
750.214 99858280 99951104 100000968 100068280 100135784 100135576 100128816 
763.714 100139680 100199696 100266336 100316752 100366760 100364128 
775.285 100350592 100424472 100424744 100436528 100494936 100522808 
786.857 100522440 100526256 100473088 100397168 100343488 100297152 
798.428 100170536 100117456 100109056 100056792 100041136 100010432 99944880 
811.929 99895568 99808584 99780584 99750032 99641824 99467992 99302512 
825.429 99070736 98796192 98509048 98152104 97635392 96978328 96074848 
838.929 94776328 92749368 89545824 84611752 77416064 68780680 62666748 
852.429 64245172 73034824 82685344 89190048 92956816 95132008 96482256 
865.929 97405672 98033680 98486400 98833848 99152360 99378928 99565264 
879.429 99664896 99756424 99872520 99982616 99981376 100048888 100146472 
892.929 100176096 100119696 100088608 100072896 100048320 99972464 99910096 
906.429 99927416 100002712 100073352 100109376 100104992 100146120 100188720 
919.930 100217368 100236256 100224344 100228976 100274672 100264376 
931.501 100292800 100333912 100320032 100342440 100385648 100312104 
943.073 100291824 100270152 100270888 100253928 100235576 100253416 
954.644 100274152 100269296 100282240 100289216 100267456 100244496 
966.216 100248160 100217800 100157672 100130512 100099224 100090408 
977.787 100076688 100057752 100067184 100039272 99956392 99910752 99850928 
991.287 99773808 99717344 99644128 99505904 99414064 99325576 99145400 
1004.787 98876200 98463976 97935784 97192936 96076352 94348760 92091976 
1018.288 89709600 88033152 88293168 90655480 93496088 95445480 96527912 
1031.788 97147792 97492272 97707192 97818456 97831744 97771736 97658488 
1045.288 97502424 97285864 96954504 96509808 95998256 95394528 94704168 
1058.788 93906352 92891136 91483432 89548880 86912944 83342456 78659008 
1072.288 72786288 65606048 57178136 47900076 39223668 33226014 32033718 
1085.788 36241932 44758156 54796376 63960660 71173392 76677288 80990856 
1099.288 84550848 87427440 89690384 91452208 92819360 93869944 94699824 
1112.788 95368864 95896360 96346168 96684856 96928296 97197744 97440472 
1126.289 97611832 97738864 97814832 97842256 97889448 97905000 97850648 
1139.789 97810528 97730320 97559424 97301872 96989256 96612952 96192064 
1153.289 95835008 95635800 95538600 95431368 95142416 94707992 94111944 
1166.789 93392664 92514312 91437216 90260200 89148080 88337800 87909640 
1180.289 87673224 87238456 86340944 84794984 82548592 79482152 75401248 
1193.789 70023616 63367904 56111156 49822044 46343524 47222316 52364592 
1207.289 60011400 67769416 74218832 78950224 82256008 84486352 85848904 
1220.789 86506864 86561896 86036904 84944184 83464176 82109128 81610960 
1234.290 82550152 84767024 87397280 89609784 91237272 92335392 92969776 
1247.790 93296088 93364904 93152792 92608936 91714776 90428400 88839672 
1261.290 87516392 87439448 89051608 91665288 94140832 95908640 97045400 
1274.790 97768744 98293704 98659520 98936200 99191968 99382928 99562792 
1288.290 99682840 99766224 99837600 99931056 99983664 100009848 100032576 
1301.790 100077712 100103688 100120584 100142896 100163224 100161072 
1313.362 100143216 100109840 100089728 100036576 99947368 99858128 99800776 
1326.862 99716864 99667656 99582168 99460560 99334576 99209568 99060712 
1340.362 98811992 98433072 97982928 97412136 96632896 95470648 93755856 
1353.862 91155360 87097424 80896824 72788200 65739996 63971544 67864400 
1367.362 74995008 82786672 88342224 91651576 93448304 94022184 93826704 
1380.862 92556696 89891064 86477832 85302008 88211288 92094544 94959680 
1394.362 96776424 97777536 98305744 98652640 98773592 98930208 99044552 
1407.863 99052808 99064104 99057960 99052920 99053400 99085112 98998816 
1421.363 98760888 98617784 98506344 98340416 98262008 98096336 97940640 
1434.863 97822712 97689464 97345696 97072272 96720384 96312216 95853576 
1448.363 95181672 94284848 93377824 92562032 91986072 91325416 90747008 
1461.863 90455016 90286024 89885216 89321680 89072784 89396136 90222848 
1475.363 91121376 92228976 93023456 93766312 94469328 95304480 96324088 
1488.863 97372984 98074592 98434256 98774704 99233696 99418856 99504624 
1502.363 99600928 99858880 100328936 100411464 100168816 100165352 100233280 
1515.864 100391088 100472408 100518264 100632872 100539160 100491624 
1527.435 100427664 100329280 100374432 100556168 100524304 100480056 
1539.007 100755680 100827320 100645528 100527480 100397504 100400832 
1550.578 100481096 100467512 100607504 100688336 101024792 100845256 
1562.150 100383336 100289984 100265904 100212336 100234752 99984152 99860096 
1575.650 99992288 100020040 100014896 100186608 100288120 100375920 
1587.221 100448592 100513288 100589944 100640856 100642928 100655272 
1598.793 100614456 100632904 100650240 100637968 100624992 100641632 
1610.364 100620912 100632392 100617128 100735704 100724616 100600216 
1621.936 100682176 100743104 100613400 100635512 100553936 100489680 
1633.507 100588696 100786952 100687984 100570536 100522064 100568688 
1645.079 100748240 100869304 100761472 100795432 101253616 101047040 
1656.651 100669352 100632648 100738864 100863960 100806936 100724984 
1668.222 100834128 100931888 100846040 100873424 100909232 100742632 
1679.794 100731640 100776160 100997440 100926632 100746744 100725648 
1691.365 100597240 100525176 100662104 100593416 100597168 100651504 
1702.937 100434008 100532744 100614632 100617136 100676792 100772560 
1714.508 100913976 101088696 101024920 100805376 100762488 100754424 
1726.080 100755000 100792464 100819000 100921312 101082264 100958616 
1737.651 100840320 100860368 100788856 100812848 100822720 100927616 
1749.223 101045608 101004640 100849440 100835728 100871600 100817000 
1760.794 100849600 100902760 100813016 100874648 100973048 101006832 
1772.366 101036440 100903104 100845256 100840664 100873992 100882720 
1783.937 100861536 100861000 100870960 100904872 100968296 100905816 
1795.509 100776312 100776208 100774432 100731336 100665520 100640560 
1807.080 100615736 100580264 100561656 100622848 100631488 100686344 
1818.652 100703984 100721576 100744992 100819584 100870320 100938464 
1830.224 100953016 100809224 100825120 100873544 100847288 100809056 
1841.795 100815344 100981760 100997376 100874672 100893232 100911976 
1853.367 100805960 100798928 100863040 100932544 100952336 100985480 
1864.938 101024008 101095856 101073560 100983200 100895920 100827392 
1876.510 100769528 100721360 100774192 100918600 100940656 100876400 
1888.081 100811640 100861424 100844864 100846904 100825840 100817488 
1899.653 100867800 100967744 100994288 100898656 100793888 100633512 
1911.224 100573560 100640720 100774320 100836440 100748208 100551584 
1922.796 100356672 100421072 100428640 100221184 99982192 100102928 
1934.367 100199032 100298296 100283768 100132456 100191344 100269544 
1945.939 100176432 100372448 100697880 100780704 100477008 100601088 
1957.510 100616216 100708704 100588432 100443016 100221240 100292168 
1969.082 100386128 100624936 100403304 100096552 100199952 100020872 
1980.653 100122984 100049984 99880816 99877704 100410720 101057504 100922440 
1994.154 100914992 101306024 100997968 100675904 100567472 99896816 99341248 
2007.654 99717904 99955936 99832384 99762128 99518552 99590528 100143816 
2021.154 100496032 100278944 99763360 99475112 99564536 99698112 99596560 
2034.654 99725680 99722048 99906160 100021280 99845168 99750072 99577144 
2048.154 99430736 99610448 99862848 99776432 100009680 100343432 100525440 
2061.653 100761248 100568704 100477808 100452736 100467624 100605664 
2073.224 100440216 100199448 100220576 100323312 100163128 100355440 
2084.795 100456488 100568008 100481208 100429952 100354400 100451336 
2096.366 100539648 100494680 100529304 100568096 100563064 100439024 
2107.937 100576504 100558136 100701096 100866744 100646768 100546920 
2119.507 100653416 100826736 100781320 100769488 100605048 100625480 
2131.078 100690712 100736200 100772200 100737272 100655832 100641192 
2142.649 100948464 100864936 100569704 100496792 100620200 101445624 
2154.220 102167064 101829720 101151864 101000440 101386552 101578344 
2165.791 101738144 102066408 101365320 101217272 101489232 101532696 
2177.361 101593848 101547224 100846864 100798656 100684000 100873944 
2188.932 101297488 101171480 100922904 100614320 100493936 100525128 
2200.503 100647720 100995720 100963512 100484784 100107368 100164776 
2212.074 100055256 100095880 100062200 100251280 100778792 100826872 
2223.645 100814728 100614248 100234184 100266800 100432072 100445432 
2235.215 100393360 100263896 100254592 100235880 100121288 100056744 
2246.786 100085888 100111512 100169552 100139616 99933320 99733144 99527624 
2260.285 99278248 98991568 98952024 99099424 99058384 99013056 99017208 
2273.785 99024800 98927408 98891384 99129472 99573736 99627032 99073832 
2287.284 98184872 97348368 96548440 95512400 94652880 93956088 93252264 
2300.783 92356392 91669272 90591200 88522896 86351688 84845520 84027824 
2314.282 83054912 81300672 78884144 76584816 74108272 71307648 68950552 
2327.782 67110264 66066704 65473984 64669464 63695288 62852616 62305036 
2341.281 60919928 62234816 66833780 72918256 74714904 70854696 64275132 
2354.780 58814740 53779568 51283836 50980948 52464468 55141908 58688860 
2368.280 62954616 68008360 73271424 78621904 83555160 87660840 91129392 
2381.779 94187616 96856576 98951680 100219408 100784832 100984432 101080176 
2395.278 101136792 101142800 101098072 101073368 101130104 101250600 
2406.849 101309848 101167656 101147968 101168808 101116960 101126952 
2418.420 101108600 101071216 101088928 101064312 101053880 101059360 
2429.990 101044528 101076936 101143384 101182424 101237656 101221488 
2441.561 101124208 101094184 101104064 101166960 101216088 101168456 
2453.132 101133056 101220792 101263136 101320944 101366040 101332200 
2464.703 101202408 101221424 101340168 101358344 101253304 101171192 
2476.274 101250696 101257656 101162312 101151424 101211928 101190296 
2487.844 101186648 101143896 101070536 101078688 101144936 101105376 
2499.415 101119040 101141120 101110544 101034888 100952272 100982248 
2510.986 101075432 101097472 101176416 101303800 101329112 101276352 
2522.557 101239304 101200512 101209304 101219784 101115776 101083352 
2534.128 101167824 101202032 101170776 101046584 101009496 100948464 
2545.698 100910736 100883008 100909504 100982464 101057480 101076640 
2557.269 101020288 100981464 100866488 100849784 100938016 101003960 
2568.840 100983280 100881576 100842032 100854680 100832280 100766464 
2580.411 100723096 100683144 100645848 100584424 100603400 100675624 
2591.982 100679224 100737640 100754712 100781024 100739480 100671920 
2603.552 100639904 100577752 100580304 100653792 100691984 100663160 
2615.123 100622432 100605264 100618160 100639952 100673840 100646672 
2626.694 100663648 100713032 100660984 100648728 100681544 100689992 
2638.265 100684992 100696856 100682152 100625104 100627224 100657024 
2649.836 100677720 100674520 100723304 100745928 100717440 100733552 
2661.406 100762624 100754560 100775608 100785992 100801832 100802424 
2672.977 100793720 100805328 100837016 100813080 100817768 100811984 
2684.548 100814560 100812488 100808144 100827648 100836864 100802568 
2696.119 100800168 100831672 100864544 100846552 100827472 100826704 
2707.690 100760200 100734176 100740960 100714840 100735496 100784512 
2719.260 100803288 100815352 100824208 100821728 100844824 100858016 
2730.831 100825376 100828976 100872248 100833088 100771424 100764800 
2742.402 100729344 100718920 100723440 100746176 100782840 100795344 
2753.973 100734600 100730240 100748872 100736848 100726712 100717096 
2765.544 100675096 100655912 100649680 100647568 100611048 100530224 
2777.115 100455448 100461792 100467216 100442864 100382376 100319960 
2788.685 100246536 100132288 99984832 99850936 99751352 99638304 99518464 
2802.185 99371832 99194408 98934352 98576888 98115976 97445528 96526464 
2815.684 95337664 94096864 93135264 92644224 92366312 91999504 91795656 
2829.183 92267328 93404672 94721480 95845816 96740856 97379256 97804464 
2842.682 98084696 98248856 98343752 98335632 98289232 98169216 97953272 
2856.182 97687840 97404992 97108880 96708088 96245072 95783840 95330376 
2869.681 94867744 94374472 93859672 93306256 92760744 92195144 91616664 
2883.180 91126704 90757048 90462424 90206944 89960032 89705248 89433784 
2896.679 89070144 88717160 88465136 88329480 88239472 88238184 88257232 
2910.179 88294576 88279952 88254024 88259800 88241400 88247496 88204008 
2923.678 87996128 87606784 87128712 86528792 85838496 85140592 84527000 
2937.177 84064640 83783696 83823360 84178320 84772456 85468464 86105192 
2950.677 86540992 86631728 86302952 85611192 84519128 82914264 80693176 
2964.176 77793544 74328576 70704112 67502448 65327104 64597472 65651764 
2977.675 68447056 72613600 77366136 81891456 85726040 88790256 91150848 
2991.174 92992168 94402032 95500776 96354664 97027040 97537736 97987968 
3004.674 98388264 98670408 98878888 99104632 99274352 99400264 99476576 
3018.173 99561936 99678512 99816048 99915912 99944744 99936360 99943440 
3031.672 99970320 100024944 100054760 100096768 100187728 100254368 
3043.243 100339208 100331472 100296272 100395800 100509832 100502792 
3054.814 100511376 100567664 100567424 100551624 100582376 100622096 
3066.385 100644672 100675376 100679672 100698792 100725640 100767368 
3077.955 100799224 100810336 100799384 100713480 100651944 100654752 
3089.526 100674632 100733064 100787232 100837096 100807824 100790856 
3101.097 100838264 100834872 100839912 100805984 100758232 100790960 
3112.668 100853600 100818760 100786712 100807320 100844600 100914616 
3124.239 100901008 100833952 100782896 100818504 100868272 100862920 
3135.809 100824992 100838792 100930912 100948320 100896576 100848184 
3147.380 100805160 100757072 100734160 100721752 100740072 100768600 
3158.951 100798312 100801760 100816440 100795128 100762520 100809032 
3170.522 100833024 100816512 100763072 100702728 100696656 100714600 
3182.093 100800704 100829400 100791592 100826968 100827728 100833064 
3193.663 100898088 100822328 100782648 100825344 100835672 100839640 
3205.234 100789192 100729792 100791168 100883632 100862728 100769768 
3216.805 100780392 100817552 100814416 100848408 100912240 100873800 
3228.376 100846672 100814264 100753760 100791296 100806200 100806032 
3239.947 100812184 100787016 100828264 100902832 100853056 100846696 
3251.517 100890008 100879000 100899600 100954792 100912384 100863920 
3263.088 100910064 100945544 100874040 100834016 100870008 100924192 
3274.659 101009024 101024960 100949080 100961856 100986352 101010560 
3286.230 101067688 101058384 101024792 100979768 100980616 101014904 
3297.801 101036408 101032704 101019272 101006952 101000008 101007144 
3309.371 101028120 101002144 101007224 101011144 100962976 100988480 
3320.942 100974992 100889576 100902320 100942872 100936192 100954128 
3332.513 101057496 101073856 101074768 101042328 101002720 100980032 
3344.084 100963448 101008584 101018992 100982896 100943840 100950728 
3355.655 100994280 100985680 100963040 100957896 100973296 101018232 
3367.225 101018648 101000576 101035544 101051344 101003528 100947552 
3378.796 100971792 101025072 101111896 101109256 101040184 100979768 
3390.367 100954464 100999624 100973976 100948952 101007592 101029168 
3401.938 101047304 101030008 100992624 101038824 101086064 101083848 
3413.509 101007528 100866720 100900280 101019192 101076632 101018184 
3425.079 100901112 100872480 100891624 100877536 100892024 100964264 
3436.650 101009928 101013912 100993088 100949368 100884608 100870112 
3448.221 100864944 100957560 100974064 100910160 100933584 100981544 
3459.792 100991800 101002864 101042176 101018672 100926960 100802592 
3471.363 100801832 100809432 100817488 100783848 100725728 100772480 
3482.933 100885520 100854744 100809768 100876904 100888760 100827552 
3494.504 100790448 100801232 100821216 100904808 100949408 100891808 
3506.075 100766456 100726424 100740368 100770336 100800288 100771880 
3517.646 100779816 100813880 100804560 100859584 100902304 100924168 
3529.217 100903872 100821344 100734328 100842312 100897968 100854016 
3540.787 100923280 100901080 100941360 101004432 100924536 100831240 
3552.358 100786984 100769832 100825264 100927960 100879184 100843448 
3563.929 100860408 100867752 100765520 100567720 100589168 100533552 
3575.500 100419384 100409504 100362232 100258128 100087344 99883600 99749792 
3588.999 99570768 99300264 99161976 99080936 99079920 99136096 99126696 
3602.498 99237640 99399168 99537648 99903984 100446928 100650952 100331136 
3615.998 99831088 99819928 99639272 98895576 98593024 98647600 98906000 
3629.497 99185824 99101616 99333312 99677480 99943200 100254152 100432840 
3642.996 100701544 101090712 101459792 101541584 101370704 101135648 
3654.567 101055576 101067752 100929520 100950048 101055272 101108744 
3666.138 101122624 101118832 101159992 101011168 100948360 100999872 
3677.708 100615952 100415144 100282112 100166928 100074744 100133920 
3689.279 99831768 99218920 98928248 98600312 98425096 98429176 98579464 
3702.779 98406208 98329208 98529904 98924760 99426304 100165352 100347888 
3716.278 99878048 99272040 98651760 98107832 97790416 97587720 97514336 
3729.777 97619872 97954272 98215000 98552928 98986664 99417864 99941160 
3743.276 100435928 100921464 100815736 101149136 101351864 101334992 
3754.847 101221824 101198488 101332920 101510256 101321776 101306320 
3766.418 101325096 101268768 101334904 101165456 101044208 101183448 
3777.989 101217784 101293720 101222800 101189992 101161360 101034200 
3789.560 101008944 101033760 101081320 101209256 101301320 101234544 
3801.130 101380664 101356144 101188888 101371912 101257344 101200184 
3812.701 101311624 101355552 101413776 101384400 101546584 101507424 
3824.272 101222672 101280216 101337176 101405552 101419832 101422136 
3835.843 101368272 101452792 101472856 101316976 101250736 101128424 
3847.414 101147760 101222872 101290144 101744480 101671456 101337880 
3858.984 101148264 101112640 101226360 101358120 101345000 101444736 
3870.555 101398264 101152480 101236640 101126432 101106240 101197256 
3882.126 101141784 101080232 101179840 101085320 101184096 101286952 
3893.697 101097992 101030256 101087680 101243224 101378320 101369728 
3905.268 101284968 101151336 101026560 101047600 101105096 101127856 
3916.838 101306384 101252536 101081848 101082424 101165072 101087696 
3928.409 101025584 101050096 101177360 101167488 101051752 101025904 
3939.980 101053384 101089080 101128400 101142168 101111536 101098024 
3951.551 101154032 101151952 101162864 101267160 101233352 101127792 
3963.122 101062096 100960648 101037040 101136760 101086936 101047920 
3974.692 101163816 101166304 101140152 101122152 101109816 101077040 
3986.263 101066168 101050744 101085664 101122024 101106088 101147152 
3997.834 101125384 101047040 
##END= $$End of data block
##END= $$ End of link block