##TITLE= Ethanol
##JCAMP-DX=4.24 $$ChemDoodle v8.1.0
##ORIGIN=null
##OWNER=UNKNOWN
##DATE=17/03/24
##LONG DATE=2017/03/24
##TIME=11:26:18
##NPOINTS=200375
##FIRSTX=-5.0
##LASTX=15.0
##FIRSTY=0.0
##XUNITS=PPM
##YUNITS=
##XFACTOR=1.0
##DELTAX=1.001358E-4
##YFACTOR=4.656613E-10
##XYDATA= (X++(Y..Y))
-5.000000@V9872J%TJ%JVKLMTOPJ0J3J6K1K6L4M3N5O9Q8J11J39J75K19K75L42M25N29O55Q09
-0.009800D086R98J227J506J845K253K746L339M050M901N919P129Q567J0272J2287J4662J7455
-0.008200A03242K0731K4565K9037L4244M0287M7285N5366O4673P5365Q7613J01608J17555
-0.007000H01571J35677J56214J79424K05582K34981K67928L04746L45773L91361M41858
-0.006000C465115M97637N59067O26506P00325P80865Q68470R63457J066094J176648J295325
-0.005000A1999509J422262J557577J701300J853362K013660K181976K357964K541238K731224
-0.004100C0360072K927300L128704L334484L543684L755116L967540M179536M389640M596208
-0.003200F4182284M797572M991936N177424N352184N514216N661592N792352N904616N996472
-0.002300A13370648O066120O111936O132288O125824O091248O027584N933968N809840
-0.001500A61669456N654848N468976N252368N005536M729312M424672M093072L736016
-0.000700B00034256L355520K953600K532672K095296J644208J182272P12496K38048k38048
0.000200B14510320p12496j182272j644208k095296k532672k953600l355520l736016m093072
0.001100A92205168m424672m729312n005536n252368n468976n654848n809840n933968o027584
0.002000A43898064o091248o125824o132288o111936o066120n996472n904616n792352n661592
0.002900I0015616n514216n352184n177424m991936m797572m596208m389640m179536l967540
0.003800D7049360l755116l543684l334484l128704k927300k731224k541238k357964k181976
0.004700B0547670k013660j853362j701300j557577j422262j295325j176648j066094r63457
0.005600G497985q68470p80865p00325o26506n59067m97637m41858l91361l45773l04746
0.006600A981377k67928k34981k05582j79424j56214j35677j17555j01608q7613p5365o4673
0.007700C54757n5366m7285m0287l4244k9037k4565k0731j7455j4662j2287j0272q567p129
0.009000C2870n919m901m050l339k746k253j845j506j227r98q09o55n29m25l42k75k19j75j39
0.010900E18j11q8o9n5m3l4k6k1j6j3j0pomTlkjV%j%Tj%S1468J%TJ%JUKLTMOPRJ3J6K1K7L5M6
1.162453A97N8P6R6J24J57K01K55L23M09N16O49Q16J022J277J594J983K464L051L771M650N720
1.164553B9409P011Q594J0499J2796J5559J8876K2844K7547L3219L9924M7868N7257O8328
1.165853C99731Q1348R6494J14463J35310J59574J87743K20359K58024L01020L51179M08264
1.166953B713509M73490N47815O32279P28002Q35119R57959J094975J248531J420134J611359
1.167954A2263172J823827K056604K318877K605164K919488L263530L638928M047254M489952
1.168854C9426796M962156N483040O036128O627784P258464P928296Q637096R372584J0167736
1.169754A05900080J0988032J1842168J2727720J3641600J4580224J5520320J6513280
1.170454B01713424J7498736J8488784J9476880K0456096K1418912K2330176K3262176
1.171154C44645184K4126816K4941184K5696480K6383360K6992864K7482880K7943584
1.171854E28212352K8268288K8481792K8576704K8546496K8385408K8088576K7619520
1.172554G26179136K7074368K6352000K5485568K4476096K3325568K2038080K0594560
1.173254H95525376J9074432J7410496J5636800J3763776J1801792R763264P652864N510272
1.174055I96139072L320896J109440j109440l320896n510272p652864r763264j1801792
1.174855I61410880j3763776j5636800j7410496j9074432k0594560k2038080k3325568
1.175555H29567168k4476096k5485568k6352000k7074368k7619520k8088576k8385408
1.176255F42085632k8546496k8576704k8481792k8268288k7943584k7482880k6992864
1.176955D45793024k6383360k5696480k4941184k4126816k3262176k2330176k1418912
1.177655B77633920k0456096j9476880j8488784j7498736j6513280j5520320j4580224
1.178355A55099600j3641600j2727720j1842168j0988032j0167736r372584q637096p928296
1.179155F9794368p258464o627784o036128n483040m962156m489952m047254l638928l263530
1.180056B3987132k919488k605164k318877k056604j823827j611359j420134j248531j094975
1.180956F888173r57959q35119p28002o32279n47815m73490m08264l51179l01020k58024
1.181956A395022k20359j87743j59574j35310j14463r6494q1348o8328n7257m7868l9924l3219
1.183156A53135k7547k2844j8876j5559j2796j0499q594p011n720m650l771l051k464j983j594
1.184656F176j277j022q16o49n16m09l23k55k01j57j24r6p6n8m6l5k7k1j6j3rpomlTkjU%j%Tj%X9
1.195058@J%UJWLTMNPRJ1J6K0K7L5M5N8P6R7J26J61K08K65L38M31N46O94Q78J107J394J751
1.198659H321K194K740L421M257N287O549Q093R980J2277J5048J8445K2534K7463L3395M0511
1.200159B20515M9029N9123P1298Q5687J02736J22890J46650J74593K07101K45669K90410
1.201259A775701L42488M02945M72947N53788O46067P53722Q76243J016233J175754J357035
1.202259I372923J562482J792385K056031K350103K679674L047980L458398L914408M414012
1.203159C4648396M976916N591364O265984P004388P810088Q686464R636616J0650088
1.203960I5270304J1768024J2955112J4224960J5578544J7016240J8537440K0116016K1822624
1.204760B27289264K3583184K5416384K7317024K9278400L1293024L3310688L5441824
1.205460D32929792L7556832L9681728M1802464M3904128M5970624M7926400M9926720
1.206160G39698688N1782464N3530368N5151296N6625600N7933696N8985536N9974272
1.206860A133681920O0671104O1129344O1333120O1268224O0922368O0285568N9278848
1.207560A558570496N8108416N6558336N4698752N2532096N0062720M7299456M4201472
1.208260A922031744M0938752L7367168L3560832K9540736K5329664K0954624J6424960
1.208960B126148480J1826560P127424K381183k381183p127424j1826560j6424960k0954624
1.209761B088768896k5329664k9540736l3560832l7367168m0938752m4201472m7299456
1.210461A830530816n0062720n2532096n4698752n6558336n8108416n9278848o0285568
1.211161A439006080o0922368o1268224o1333120o1129344o0671104n9974272n8985536
1.211861A014722112n7933696n6625600n5151296n3530368n1782464m9926720m7926400
1.212561F41845568m5970624m3904128m1802464l9681728l7556832l5441824l3310688
1.213261C64177280l1293024k9278400k7317024k5416384k3583184k1822624k0116016
1.213961A85350624j8537440j7016240j5578544j4224960j2955112j1768024j0650088r636616
1.214761G4983600q686464p810088p004388o265984n591364m976916m414012l914408l458398
1.215662B2861578l047980k679674k350103k056031j792385j562482j357035j175754j016233
1.216562E823901q76243p53722o46067n53788m72947m02945l42488k90410k45669k07101
1.217562A032521j74593j46650j22890j02736q5687p1298n9123m9029m0511l3395k7463k2534
1.218762I6612j8445j5048j2277r980q093o549n287m257l421k740k194j751j394j107q78o94
1.220362B497n46m31l38k65k08j61j26r7p6n8m5l5k7k0j6j1rpnmlTjW%Uj%X8J%UJT%KJKLMNOQ
1.231764C4J1J4J9K4L1M0N2O8Q6J10J42J81K30K92L70M69N91P45R35J172J463J827K274K823
1.234165A4003L498M322N330O557Q037R851J2035J4667J7835K1636K6185L1576L8079M5763
1.235565B59374N4869O5632P8322R3245J10608J31205J55100J82914K15202K52589K95763
1.236665A894823L45047M02543M67979N42743O27939P24757Q34480R57266J098071J255129
1.237665I150777J431142J627846J847038K090583K357406K658040K986200L346496L740858
1.238565C1236386M171166M639208N146664N687928O284996O918984P597172Q320096R087912
1.239465H9090512R900368J0743424J1654896J2595152J3574224J4589280J5636848J6712768
1.240266A94497472J7790352J8928528K0058128K1192976K2325632K3448000K4551680
1.240966C42792768K5596256K6664512K7655616K8589184K9454848L0242240L0940896
1.241666E41936320L1502592L2030656L2402816L2647552L2756416L2721792L2537024
1.242366G68535168L2196864L1659264L1034240L0206336K9213056K8056000K6737216
1.243066I77638144K5261504K3606720K1864256J9956928J7923968J5776896J3527936
1.243766A115556352J1191168Q772224O316288L806464J271808j271808l806464o316288
1.244566A135519744q772224j1191168j3527936j5776896j7923968j9956928k1864256
1.245266A026506368k3606720k5261504k6737216k8056000k9213056l0206336l1034240
1.245967H32391296l1659264l2196864l2537024l2721792l2756416l2647552l2402816
1.246667F05469568l2030656l1502592l0940896l0242240k9454848k8589184k7655616
1.247367C95053536k6664512k5596256k4551680k3448000k2325632k1192976k0058128
1.248067B31216352j8928528j7790352j6712768j5636848j4589280j3574224j2595152
1.248767A21389200j1654896j0743424r900368r087912q320096p597172o918984o284996
1.249567E0881352n687928n146664m639208m171166l740858l346496k986200k658040k357406
1.250467A6147386k090583j847038j627846j431142j255129j098071r57266q34480p24757
1.251367D281074o27939n42743m67979m02543l45047k95763k52589k15202j82914j55100
1.252368G93255j31205j10608r3245p8322o5632n4869m5763l8079l1576k6185k1636j7835
1.253568G8300j4667j2035r851q037o557n330m322l498k823k274j827j463j172r35p45n91m69
1.255268A704l70k92k30j81j42j10q6o8n2m0l1k4j9j4j1qonmlkjk%jT%Uj%S5855J%S7J%S1J%WJ
2.834550D%WJ%WJ%WL%WK%WM%WM%WO%WQ%WJ0%WJ3%WJ7%WK2%WK7%WL6%WM5%WN7%WP3%WR3%WJ16%W
2.844449E42J48%WJ86%WK33%WK93%WL65%WM57%WN67%WP05%WQ73%WJ079%WJ330%WJ637%WK008%W
2.850949A0423K460%WL004%WL661%WM451%WN400%WO535%WP890%WR510%WJ1423%WJ3695%WJ6381
2.856048I4833%WJ9547%WK3271%WK7654%WL2751%WL8714%WM5655%WN3712%WO3041%WP3814%W
2.860948D72992Q6266%WJ00482%WJ16810%WJ35468%WJ56727%WJ80886%WK08264%WK39327%W
2.864948A697222K74094%WL13287%WL57211%WM06294%WM60989%WN22023%WN89114%WO63477%W
2.868947E283711P45368%WQ35277%WR33683%WJ041057%WJ158427%WJ284529%WJ421369%W
2.872447A2703421J568751%WJ726956%WJ896188%WK077614%WK268264%WK470996%WK684696%W
2.875947B7396886K909074%WL143700%WL388020%WL643100%WL902828%WM171312%WM445664%W
2.879447E3000584M724548%WN006424%WN292196%WN572368%WN852456%WO127848%WO396296%W
2.882946I1972720O655392%WO902704%WP139112%WP351784%WP548264%WP722600%WP872240%W
2.886446A43164816P994688%WQ091440%WQ148656%WQ175792%WQ167152%WQ121088%WQ036192%W
2.889946A99899824P911424%WP749584%WP539232%WP291392%WP002640%WO673584%WO305344%W
2.893445B50373024N899216%WN459632%WM980960%WM473632%WL937856%WL376736%WK793600%W
2.896945B81294656K193152%WJ576128%WR49888%WL17312%Wl17312%Wr49888%Wj576128%W
2.900445B83487808k193152%Wk793600%Wl376736%Wl937856%Wm473632%Wm980960%Wn459632%W
2.903945B56272240n899216%Wo305344%Wo673584%Wp002640%Wp291392%Wp539232%Wp749584%W
2.907444B07811248p911424%Wq036192%Wq121088%Wq167152%Wq175792%Wq148656%Wq091440%W
2.910944A51159504p994688%Wp872240%Wp722600%Wp548264%Wp351784%Wp139112%Wo902704%W
2.914444I8628112o655392%Wo396296%Wo127848%Wn852456%Wn572368%Wn292196%Wn006424%W
2.917944E7725132m724548%Wm445664%Wm171312%Wl902828%Wl643100%Wl388020%Wl143700%W
2.921443C0305960k909074%Wk684696%Wk470996%Wk268264%Wk077614%Wj896188%Wj726956%W
2.924943A4272172j568751%Wj421369%Wj284529%Wj158427%Wj041057%Wr33683%Wq35277%W
2.928443F029079p45368%Wo63477%Wn89114%Wn22023%Wm60989%Wm06294%Wl57211%Wl13287%W
2.932443A971316k74094%Wk39327%Wk08264%Wj80886%Wj56727%Wj35468%Wj16810%Wj00482%W
2.936442E59258q6266%Wp3814%Wo3041%Wn3712%Wm5655%Wl8714%Wl2751%Wk7654%Wk3271%W
2.940942A14380j9547%Wj6381%Wj3695%Wj1423%Wr510%Wp890%Wo535%Wn400%Wm451%Wl661%W
2.945942A5887l004%Wk460%Wk008%Wj637%Wj330%Wj079%Wq73%Wp05%Wn67%Wm57%Wl65%Wk93%W
2.951941A109k33%Wj86%Wj48%Wj16%Wr3%Wp3%Wn7%Wm5%Wl6%Wk7%Wk2%Wj7%Wj3%Wj0%Wq%Wo%Wm%W
2.960441A5m%Wk%Wl%Wj%Wj%Wj%Wj%S1j%S7j%V908J%TJ%JUKUMNOQJ0J4J7K3K8L7M7O0P7R8J23
3.447416E68J56J98K48L11L91M88O10P57R42J165J439J778K183K685L280M017M884N937P220
3.449314C9257Q717J0551J2679J5274J8270K1848K6136L1042L6957M3687N1767O0905P1641
3.450612D48731Q4289R8461J15291J34032J56193J80715K09045K41853K77805L19851L65617
3.451711B631883M18908M76516N41926O16368O95979P87679Q85018R96657J114242J245383
3.452710A0410559J391958J544462J717495J895978K097616K303708K529232K776526L025534
3.453609B9693068L303890L581146L889780M193564M519152M868688N205856N577340N930124
3.454508G0762608O317256O678296P072976P433216P806480Q193416Q532096Q898976R207736
3.455407A40903056R541248R806752J0068592J0325792J0500848J0689696J0788144J0895536
3.456207B23519664J0905792J0894256J0858688J0719584J0578208J0332320J0080576R725888
3.457006C07614976R341120Q923296Q410720P887712P279040O659840N967136N253088M515168
3.457905C71852096L726464K931040K102400J269856M22912m22912j269856k102400k931040
3.458804C75578560l726464m515168n253088n967136o659840p279040p887712q410720q923296
3.459703C16956096r341120r725888j0080576j0332320j0578208j0719584j0858688j0894256
3.460502B34425456j0905792j0895536j0788144j0689696j0500848j0325792j0068592r806752
3.461301A50444304r541248r207736q898976q532096q193416p806480p433216p072976o678296
3.462200G7079864o317256n930124n577340n205856m868688m519152m193564l889780l581146
3.463099C2996958l303890l025534k776526k529232k303708k097616j895978j717495j544462
3.463999A1802517j391958j245383j114242r96657q85018p87679o95979o16368n41926m76516
3.464998C050791m18908l65617l19851k77805k41853k09045j80715j56193j34032j15291r8461
3.466096E33020q4289p1641o0905n1767m3687l6957l1042k6136k1848j8270j5274j2679j0551
3.467395D7974q717p220n937m884m017l280k685k183j778j439j165r42p57o10m88l91l11k48
3.469193I22j98j56j23r8p7o0m7l7k8k3j7j4j0qonmkUjU%j%Tj%Y4J%UJT%KJKLMNOQJ1J4J9K4L1
3.481381A33M0N2O8Q6J11J41J80K31K92L71M68N92P44R34J173J463J830K271K827L494M317
3.483479B1818N335O548Q056R841J2050J4652J7812K1659K6151L1652L8037M5822N4810O5546
3.484877C79789P8408R3124J10872J31062J55301J82713K14925K52866K95382L45873M02098
3.485976B642413M68579N42143O27135P25561Q33415R59553J096849J256725J429546J625780
3.486975A2207699J849104K087936K363037K655056K989968L342728L736150M175874M633384
3.487874D0040936N152488N687928O292856O911124P587692Q329576R076600R911680J0743424
3.488773A09734304J1669344J2580704J3557440J4606064J5617584J6732032J7790352
3.489472B12287824J8951776K0034880K1218896K2299712K3419424K4580256K5596256
3.490172C68389024K6696928K7623200K8623744K9420288L0205792L0977344L1502592
3.490871E73438912L2069056L2364416L2686656L2717312L2682816L2576000L2158784
3.491570H00693952L1734656L0996928L0241728K9177664K8023296K6769920K5232320
3.492270A002870464K3662976K1837184J9979520J7901376J5759232J3545600J1179264
3.492969A126735616Q793216O307200L809536J268736j268736l809536o307200q793216
3.493768A126735616j1179264j3545600j5759232j7901376j9979520k1837184k3662976
3.494467A002870464k5232320k6769920k8023296k9177664l0241728l0996928l1734656
3.495167H00693952l2158784l2576000l2682816l2717312l2686656l2364416l2069056
3.495866E73438912l1502592l0977344l0205792k9420288k8623744k7623200k6696928
3.496565C68389024k5596256k4580256k3419424k2299712k1218896k0034880j8951776
3.497264B12287824j7790352j6732032j5617584j4606064j3557440j2580704j1669344
3.497964A09734304j0743424r911680r076600q329576p587692o911124o292856n687928
3.498763D5193424n152488m633384m175874l736150l342728k989968k655056k363037k087936
3.499662A4056803j849104j625780j429546j256725j096849r59553q33415p25561o27135
3.500561C653135n42143m68579m02098l45873k95382k52866k14925j82713j55301j31062
3.501560F62193j10872r3124p8408o5546n4810m5822l8037l1652k6151k1659j7812j4652j2050
3.502859E1598r841q056o548n335m317l494k827k271j830j463j173r34p44n92m68l71k92k31
3.504657H11j80j41j11q6o8n2m0l1k4j9j4j1qonmlkjk%jT%Uj%Y1J%TJ%JUKLTMOPRJ3J6K1K7L5
3.516445A51M6N8P6R6J24J57K01K55L23M09N16O49Q15J023J277J596J981K467L048L766M655
3.518543B3689N712P028Q585J0513J2782J5539J8896K2814K7613L3183L9976M7816N7183O8402
3.519941C99731Q1243R6724J14338J35485J59399J87501K20601K57692L01739L50792M08788
3.521040B714033M72966N47114O32980P27072Q37115R56893J096369J247137J418332J613161
3.522039A2263172J821517K061518K316273K608452K916200L259420L643038M042170M495036
3.522938C9426796M962156N489896O029272O619516P266732P918440Q646952R372584J0180344
3.523837A05912688J0975424J1827528J2742360J3624784J4597040J5520320J6533552
3.524536B01733696J7478464J8511424J9454240K0431136K1443872K2330176K3290464
3.525236C44673472K4098528K4971392K5666272K6351552K7024672K7482880K7977088
3.525935E28245856K8234784K8515904K8542592K8512576K8419328K8055360K7685376
3.526634G26211776K7041728K6382848K5454720K4447552K3354112K2012672K0643648
3.527333H95549056J9050752J7430144J5617152J3748480J1817088R752896P671168N502336
3.528133I96139072L323520J106816j106816l323520n502336p671168r752896j1817088
3.528932I61395584j3748480j5617152j7430144j9050752k0643648k2012672k3354112
3.529631H29538624k4447552k5454720k6382848k7041728k7685376k8055360k8419328
3.530330F42051712k8512576k8542592k8515904k8234784k7977088k7482880k7024672
3.531030D45761216k6351552k5666272k4971392k4098528k3290464k2330176k1443872
3.531729B77608960k0431136j9454240j8511424j7478464j6533552j5520320j4597040
3.532428A55082784j3624784j2742360j1827528j0975424j0180344r372584q646952p918440
3.533227F9794368p266732o619516o029272n489896m962156m495036m042170l643038l259420
3.534127B3987132k916200k608452k316273k061518j821517j613161j418332j247137j096369
3.535026F888173r56893q37115p27072o32980n47114m72966m08788l50792l01739k57692
3.536025A395022k20601j87501j59399j35485j14338r6724q1243o8402n7183m7816l9976l3183
3.537223A53171k7613k2814j8896j5539j2782j0513q585p028n712m655l766l048k467j981j596
3.538722F176j277j023q15o49n16m09l23k55k01j57j24r6p6n8m6l5k7k1j6j3rpomlTkjU%j%Tj%Y5
3.549711@J%UJ%JTKULMOPRJ1J6J9K5L2M2N2O7Q5J08J36J72K16K72L41M26N32O60Q22J016J256
3.553407F345J551J904K343K862L504M261N179O299P605R204J1061J3325J5939J9061K2801
3.554905A33244K7081L2241L8113M5161N3133O2501P3533Q5898J00579J16931J36263J57655
3.556104A062333J82371K10994K42357K79038L18965L65456M15712M72778N37720O07173
3.557103D694897O87172P72091Q69484R72067J086473J214346J347390J498346J654051
3.558002A4796317J829965K009756K206506K422244K639480K882316L124198L393446L658472
3.558901C8962700L942512M247452M541596M865680N173440N511180N826160O170464O484760
3.559800H5725944O810376P147952P443400P763480Q032856Q323784Q555424Q783856R008224
3.560699A57595296R160960R325696R411600R505264R514224R504176R473120R351776R228480
3.561598B42070592R013904Q794288Q484912Q149168P784704P337536O881216O350272N810048
3.562497C10676640N205728M582848L939008L250944K557056J834144J107808L68960l68960
3.563396C33154176j107808j834144k557056l250944l939008m582848n205728n810048o350272
3.564296B98516320o881216p337536p784704q149168q484912q794288r013904r228480r351776
3.565195B23490336r473120r504176r514224r505264r411600r325696r160960r008224q783856
3.566094A39803216q555424q323784q032856p763480p443400p147952o810376o484760o170464
3.566993G3070720n826160n511180n173440m865680m541596m247452l942512l658472l393446
3.567892C1910782l124198k882316k639480k422244k206506k009756j829965j654051j498346
3.568791A1643920j347390j214346j086473r72067q69484p72091o87172o07173n37720m72778
3.569790C077226m15712l65456l18965k79038k42357k10994j82371j57655j36263j16931
3.570789F51484j00579q5898p3533o2501n3133m5161l8113l2241k7081k2801j9061j5939j3325
3.572088F2118j1061r204p605o299n179m261l504k862k343j904j551j256j016q22o60n32m26
3.573786A633l41k72k16j72j36j08q5o7n2m2l2k5j9j6j1rpomlkUjT%j%Uj%S14088
##END=
##TITLE=Ethanol
##JCAMP-CS=3.7 $$ChemDoodle v8.1.0
##ORIGIN=null
##OWNER=UNKNOWN
##MOLFORM=C2 H6 O
##ATOMLIST=
1 H 0
2 C 3
3 H 0
4 H 0
5 C 2
6 H 0
7 H 0
8 O 1
9 H 0
##BONDLIST=
1 2 S
2 3 S
2 4 S
2 5 S
5 6 S
5 7 S
5 8 S
8 9 S
##DATE=17/03/24
##TIME=11:26:18
##MAX_RASTER=792
##XY_RASTER_FACTOR=10000
##XY_RASTER=
1 1230000 1340000 0 
2 1430000 1340000 0 
3 1430000 1140000 0 
4 1430000 1540000 0 
5 1630000 1340000 0 
6 1630000 1140000 0 
7 1630000 1540000 0 
8 1830000 1340000 0 
9 2030000 1340000 0 
##END=
##TITLE=Ethanol
##JCAMP-DX=4.24
##DATA TYPE=CNMR PEAK ASSIGNMENTS
##ORIGIN= DePauw University
##OWNER= Jeff Hansen
##BLOCK ID=2
##CROSS REFERENCE=STRUCTURE: BLOCK ID=1
##XUNITS=PPM
##YUNITS=ARBITRARY UNITS
##PEAK ASSIGNMENTS=(XYA)
(3.5,0.534, <6>)
(3.5,0.534, <7>)
(2.9,0.133, <9>)
(1.2,1.0, <1>)
(1.2,1.0, <3>)
(1.2,1.0, <4>)
##END= $$End of assignment block
